&inputpp
  prefix = 'O.q1'
  outdir = './'
  write_psir = .false.
/
