 $CONTRL SCFTYP=MCSCF RUNTYP=ENERGY MPLEVL=0 
   ISPHER=1 EXETYP=RUN COORD=UNIQUE MULT=1 $END
 $SYSTEM  MEMORY=4000000000 MEMDDI=250 TIMLIM=1 $END
 $BASIS  GBASIS=STO NGAUSS=3 $END
 $DATA

C1
HYDROGEN       1.0     0.0000000000   0.00000    0.00000000000
HYDROGEN       1.0     1.0000000000   0.00000    0.00000000000
HYDROGEN       1.0    -0.0000000000  -0.00000    1.50000000000
HYDROGEN       1.0     0.0000000000  -0.00000    3.00000000000
 $END
 $MCSCF CISTEP=ALDET MAXIT=150 ACURCY=1E-6 $END
 $GUESS GUESS=MOREAD NORB=4 $END
 $DET   NCORE=0 NSTATE=10 NACT=4 NELS=4 WSTATE(1)=1.0,1.0 $END
 $VEC   
 1  1 5.27326285E-01 4.98382064E-01 2.59129298E-01 1.17094656E-01
 2  1-2.20006742E-01-2.87433067E-01 5.66755979E-01 6.50372339E-01
 3  1 1.02751064E-01-4.20072115E-01 8.00392301E-01-7.70890896E-01
 4  1 1.02508198E+00-9.06736509E-01-3.49192559E-01 2.06095431E-01
 $END 
