 $CONTRL SCFTYP=RHF RUNTYP=ENERGY MULT=1
   ISPHER=1 EXETYP=RUN MAXIT=200 $END
 $SYSTEM MEMORY=350000000 MEMDDI=250 $END
 $BASIS GBASIS=STO NGAUSS=3 $END
 $GUESS  GUESS=HUCKEL $END
 $SCF DIRSCF=.TRUE. $END
 $DATA

C1
HYDROGEN       1.0     0.0000000000   0.00000    0.00000000000
HYDROGEN       1.0     1.0000000000   0.00000    0.00000000000
HYDROGEN       1.0    -0.0000000000  -0.00000    1.50000000000
HYDROGEN       1.0     0.0000000000  -0.00000    3.00000000000
 $END
