&inputpp
  write_psir = .false.
  prefix = 'pwscf'
  outdir = 'pwscf_output'
/
