 $contrl exetyp=run icharg=0 ispher=1 maxit=200 mult=3 nosym=1 
         runtyp=energy scftyp=uhf  $end
 $system memory=150000000  $end
 $guess  guess=huckel  $end
 $DATA
A molecule.
Dnh  2

O 8.00       0.00000000       0.00000000       0.00000000
S   10
  1 164200.0000000              0.0000260        
  2  24590.0000000              0.0002050        
  3   5592.0000000              0.0010760        
  4   1582.0000000              0.0045220        
  5    516.1000000              0.0161080        
  6    187.2000000              0.0490850        
  7     73.9300000              0.1248570        
  8     31.2200000              0.2516860        
  9     13.8100000              0.3624200        
 10      6.2560000              0.2790510        
S   10
  1 164200.0000000             -0.0000060        
  2  24590.0000000             -0.0000460        
  3   5592.0000000             -0.0002440        
  4   1582.0000000             -0.0010310        
  5    516.1000000             -0.0036880        
  6    187.2000000             -0.0115140        
  7     73.9300000             -0.0304350        
  8     31.2200000             -0.0681470        
  9     13.8100000             -0.1203680        
 10      6.2560000             -0.1482600        
S   1
  1      2.7760000              1.0000000        
S   1
  1      1.1380000              1.0000000        
S   1
  1      0.4600000              1.0000000        
S   1
  1      0.1829000              1.0000000        
S   1
  1     15.6450000              1.0000000        
S   1
  1     35.8740000              1.0000000        
S   1
  1     82.2590000              1.0000000        
S   1
  1    188.6200000              1.0000000        
P   4
  1    195.5000000              0.0009180        
  2     46.1600000              0.0073880        
  3     14.5800000              0.0349580        
  4      5.2960000              0.1154310        
P   1
  1      2.0940000              1.0000000        
P   1
  1      0.8471000              1.0000000        
P   1
  1      0.3368000              1.0000000        
P   1
  1      0.1285000              1.0000000        
P   1
  1     14.0490000              1.0000000        
P   1
  1     35.4460000              1.0000000        
P   1
  1     89.4290000              1.0000000        
P   1
  1    225.6300000              1.0000000        
D   1
  1      5.8790000              1.0000000        
D   1
  1      2.3070000              1.0000000        
D   1
  1      0.9050000              1.0000000        
D   1
  1      0.3550000              1.0000000        
D   1
  1     16.7030000              1.0000000        
D   1
  1     47.3200000              1.0000000        
D   1
  1    134.0560000              1.0000000        
F   1
  1      4.0160000              1.0000000        
F   1
  1      1.5540000              1.0000000        
F   1
  1      0.6010000              1.0000000        
F   1
  1     17.3540000              1.0000000        
F   1
  1     65.5460000              1.0000000        
G   1
  1      3.3500000              1.0000000        
G   1
  1      1.1890000              1.0000000        
G   1
  1     48.5780000              1.0000000

 $END
