!   File created by the GAMESS Input Deck Generator Plugin for Avogadro
 $CONTRL SCFTYP=ROHF RUNTYP=ENERGY  MULT=5 DFTTYP=B3LYP
   ISPHER=1 EXETYP=RUN COORD=UNIQUE MAXIT=200  ICHARG=2 ECP=READ $END
 $SYSTEM MEMORY=150000000 $END
 $GUESS  GUESS=HUCKEL $END
 $SCF DIRSCF=.TRUE. DIIS=.TRUE. ETHRSH=1.0 SWDIIS=0.009  $END
 $ECP 
Fe-QMC_SC GEN 10 2
3
16.00000000 1 3.72075632
59.53210107 3 3.92321272
-68.75847841 2 3.89595440
1
112.92561163 2 10.42343546
1
52.55882759 2 8.41664076
C-QMC GEN 2 1
3
4.00000000 1 8.35973821
33.43895285 3 4.48361888
-19.17537323 2 3.93831258
1
22.55164191 2 5.02991637
O-QMC GEN 2 1
3
6.00000000 1 9.29793903
55.78763416 3 8.86492204
-38.81978498 2 8.62925665
1
38.41914135 2 8.71924452
C-QMC
O-QMC
C-QMC
O-QMC
C-QMC
O-QMC
C-QMC
O-QMC
C-QMC
O-QMC
 $END
 $DATA 
Title
C1
Fe    26.0     0.00000    0.00000    0.00000
S   19
  1      4.316265E+06           8.048803E-06     
  2      6.463424E+05           6.258306E-05     
  3      1.470897E+05           3.290239E-04     
  4      4.166152E+04           1.387355E-03     
  5      1.359077E+04           5.023256E-03     
  6      4.905750E+03           1.610140E-02     
  7      1.912746E+03           4.590034E-02     
  8      7.926043E+02           1.136154E-01     
  9      3.448065E+02           2.283869E-01     
 10      1.558999E+02           3.221159E-01     
 11      7.223091E+01           2.383661E-01     
 12      3.272506E+01           7.404667E-02     
 13      1.566762E+01           9.214197E-02     
 14      7.503483E+00           9.339790E-02     
 15      3.312223E+00           1.573965E-02     
 16      1.558471E+00          -4.186682E-04     
 17      6.839140E-01           5.376318E-05     
 18      1.467570E-01          -3.816654E-05     
 19      7.058300E-02           4.319603E-05     
S   19
  1      4.316265E+06          -4.155954E-06     
  2      6.463424E+05          -3.231401E-05     
  3      1.470897E+05          -1.699525E-04     
  4      4.166152E+04          -7.171369E-04     
  5      1.359077E+04          -2.603625E-03     
  6      4.905750E+03          -8.399109E-03     
  7      1.912746E+03          -2.434109E-02     
  8      7.926043E+02          -6.251948E-02     
  9      3.448065E+02          -1.365929E-01     
 10      1.558999E+02          -2.312707E-01     
 11      7.223091E+01          -2.383734E-01     
 12      3.272506E+01           3.123837E-02     
 13      1.566762E+01           5.086818E-01     
 14      7.503483E+00           4.987695E-01     
 15      3.312223E+00           9.033552E-02     
 16      1.558471E+00          -6.005337E-03     
 17      6.839140E-01           2.312454E-04     
 18      1.467570E-01          -5.643680E-04     
 19      7.058300E-02           4.992260E-04     
S   19
  1      4.316265E+06           9.532178E-07     
  2      6.463424E+05           7.414605E-06     
  3      1.470897E+05           3.898393E-05     
  4      4.166152E+04           1.647152E-04     
  5      1.359077E+04           5.985980E-04     
  6      4.905750E+03           1.942390E-03     
  7      1.912746E+03           5.687237E-03     
  8      7.926043E+02           1.501329E-02     
  9      3.448065E+02           3.452455E-02     
 10      1.558999E+02           6.495820E-02     
 11      7.223091E+01           7.716194E-02     
 12      3.272506E+01          -1.873411E-02     
 13      1.566762E+01          -3.009185E-01     
 14      7.503483E+00          -4.554661E-01     
 15      3.312223E+00           1.286463E-01     
 16      1.558471E+00           7.183316E-01     
 17      6.839140E-01           4.051743E-01     
 18      1.467570E-01           2.168227E-02     
 19      7.058300E-02          -8.343566E-03     
S   19
  1      4.316265E+06          -2.063008E-07     
  2      6.463424E+05          -1.604169E-06     
  3      1.470897E+05          -8.438437E-06     
  4      4.166152E+04          -3.563151E-05     
  5      1.359077E+04          -1.295998E-04     
  6      4.905750E+03          -4.201534E-04     
  7      1.912746E+03          -1.231954E-03     
  8      7.926043E+02          -3.248922E-03     
  9      3.448065E+02          -7.493717E-03     
 10      1.558999E+02          -1.410102E-02     
 11      7.223091E+01          -1.691600E-02     
 12      3.272506E+01           4.218996E-03     
 13      1.566762E+01           6.833810E-02     
 14      7.503483E+00           1.098201E-01     
 15      3.312223E+00          -4.009005E-02     
 16      1.558471E+00          -2.174739E-01     
 17      6.839140E-01          -2.465135E-01     
 18      1.467570E-01           2.731435E-01     
 19      7.058300E-02           5.748321E-01     
S   19
  1      4.316265E+06          -4.009367E-07     
  2      6.463424E+05          -3.189255E-06     
  3      1.470897E+05          -1.623079E-05     
  4      4.166152E+04          -7.157920E-05     
  5      1.359077E+04          -2.463958E-04     
  6      4.905750E+03          -8.544907E-04     
  7      1.912746E+03          -2.307593E-03     
  8      7.926043E+02          -6.728292E-03     
  9      3.448065E+02          -1.366165E-02     
 10      1.558999E+02          -3.062240E-02     
 11      7.223091E+01          -2.631137E-02     
 12      3.272506E+01          -9.760183E-03     
 13      1.566762E+01           1.801906E-01     
 14      7.503483E+00           1.529634E-01     
 15      3.312223E+00           5.505413E-02     
 16      1.558471E+00          -9.551364E-01     
 17      6.839140E-01           2.586813E-01     
 18      1.467570E-01           1.834049E+00     
 19      7.058300E-02          -9.333240E-01     
S   1
  1      3.144900E-02           1.0000000        
P   15
  1      1.774569E+04           4.100000E-05     
  2      4.200721E+03           3.690000E-04     
  3      1.364429E+03           2.129000E-03     
  4      5.220806E+02           9.369000E-03     
  5      2.214595E+02           3.309700E-02     
  6      1.009096E+02           9.443100E-02     
  7      4.840115E+01           2.080770E-01     
  8      2.398536E+01           3.323330E-01     
  9      1.218250E+01           3.329870E-01     
 10      6.242298E+00           1.568430E-01     
 11      3.110944E+00           2.154900E-02     
 12      1.509958E+00          -2.095000E-03     
 13      7.108450E-01          -1.739000E-03     
 14      2.731900E-01          -3.000000E-04     
 15      1.042330E-01           2.900000E-05     
P   15
  1      1.774569E+04          -1.500000E-05     
  2      4.200721E+03          -1.300000E-04     
  3      1.364429E+03          -7.510000E-04     
  4      5.220806E+02          -3.329000E-03     
  5      2.214595E+02          -1.191200E-02     
  6      1.009096E+02          -3.493300E-02     
  7      4.840115E+01          -7.998900E-02     
  8      2.398536E+01          -1.346360E-01     
  9      1.218250E+01          -1.385980E-01     
 10      6.242298E+00           3.027800E-02     
 11      3.110944E+00           3.332160E-01     
 12      1.509958E+00           4.561530E-01     
 13      7.108450E-01           2.850510E-01     
 14      2.731900E-01           4.614400E-02     
 15      1.042330E-01          -3.249000E-03     
P   15
  1      1.774569E+04           3.000000E-06     
  2      4.200721E+03           2.900000E-05     
  3      1.364429E+03           1.650000E-04     
  4      5.220806E+02           7.340000E-04     
  5      2.214595E+02           2.626000E-03     
  6      1.009096E+02           7.725000E-03     
  7      4.840115E+01           1.773300E-02     
  8      2.398536E+01           3.005500E-02     
  9      1.218250E+01           3.109400E-02     
 10      6.242298E+00          -1.004800E-02     
 11      3.110944E+00          -8.830600E-02     
 12      1.509958E+00          -1.298240E-01     
 13      7.108450E-01          -7.693700E-02     
 14      2.731900E-01           2.126610E-01     
 15      1.042330E-01           5.730610E-01     
P   15
  1      1.774569E+04           5.000000E-06     
  2      4.200721E+03           4.200000E-05     
  3      1.364429E+03           2.410000E-04     
  4      5.220806E+02           1.085000E-03     
  5      2.214595E+02           3.831000E-03     
  6      1.009096E+02           1.142300E-02     
  7      4.840115E+01           2.579200E-02     
  8      2.398536E+01           4.481800E-02     
  9      1.218250E+01           4.459800E-02     
 10      6.242298E+00          -1.117700E-02     
 11      3.110944E+00          -1.381340E-01     
 12      1.509958E+00          -1.882850E-01     
 13      7.108450E-01          -1.073990E-01     
 14      2.731900E-01           4.448630E-01     
 15      1.042330E-01           6.402390E-01     
P   1
  1      3.829100E-02           1.0000000        
D   7
  1      1.133440E+02           3.530000E-03     
  2      3.364140E+01           2.578400E-02     
  3      1.233100E+01           9.911900E-02     
  4      4.994780E+00           2.390730E-01     
  5      2.072800E+00           3.571990E-01     
  6      8.307530E-01           3.621880E-01     
  7      3.091780E-01           2.364610E-01     
D   7
  1      1.133440E+02          -3.890000E-03     
  2      3.364140E+01          -2.844200E-02     
  3      1.233100E+01          -1.124290E-01     
  4      4.994780E+00          -2.742570E-01     
  5      2.072800E+00          -3.155460E-01     
  6      8.307530E-01           5.710900E-02     
  7      3.091780E-01           5.636040E-01     
D   1
  1      1.001300E-01           1.0000000        
F   2
  1      3.224300E+00           4.222490E-01     
  2      7.758000E-01           7.714680E-01     

C     6.0     0.00000    -0.00722     2.34059
S   8
  1   6665.0000000              0.0006920        
  2   1000.0000000              0.0053290        
  3    228.0000000              0.0270770        
  4     64.7100000              0.1017180        
  5     21.0600000              0.2747400        
  6      7.4950000              0.4485640        
  7      2.7970000              0.2850740        
  8      0.5215000              0.0152040        
S   8
  1   6665.0000000             -0.0001460        
  2   1000.0000000             -0.0011540        
  3    228.0000000             -0.0057250        
  4     64.7100000             -0.0233120        
  5     21.0600000             -0.0639550        
  6      7.4950000             -0.1499810        
  7      2.7970000             -0.1272620        
  8      0.5215000              0.5445290        
S   1
  1      0.1596000              1.0000000        
P   3
  1      9.4390000              0.0381090        
  2      2.0020000              0.2094800        
  3      0.5456000              0.5085570        
P   1
  1      0.1517000              1.0000000        
D   1
  1      0.5500000              1.0000000        

O     8.0    -0.00003    -0.04156     3.45492
S   8
  1  11720.0000000              0.0007100        
  2   1759.0000000              0.0054700        
  3    400.8000000              0.0278370        
  4    113.7000000              0.1048000        
  5     37.0300000              0.2830620        
  6     13.2700000              0.4487190        
  7      5.0250000              0.2709520        
  8      1.0130000              0.0154580        
S   8
  1  11720.0000000             -0.0001600        
  2   1759.0000000             -0.0012630        
  3    400.8000000             -0.0062670        
  4    113.7000000             -0.0257160        
  5     37.0300000             -0.0709240        
  6     13.2700000             -0.1654110        
  7      5.0250000             -0.1169550        
  8      1.0130000              0.5573680        
S   1
  1      0.3023000              1.0000000        
P   3
  1     17.7000000              0.0430180        
  2      3.8540000              0.2289130        
  3      1.0460000              0.5087280        
P   1
  1      0.2753000              1.0000000        
D   1
  1      1.1850000              1.0000000        

C     6.0     2.30299    -0.00001    -0.00001
S   8
  1   6665.0000000              0.0006920        
  2   1000.0000000              0.0053290        
  3    228.0000000              0.0270770        
  4     64.7100000              0.1017180        
  5     21.0600000              0.2747400        
  6      7.4950000              0.4485640        
  7      2.7970000              0.2850740        
  8      0.5215000              0.0152040        
S   8
  1   6665.0000000             -0.0001460        
  2   1000.0000000             -0.0011540        
  3    228.0000000             -0.0057250        
  4     64.7100000             -0.0233120        
  5     21.0600000             -0.0639550        
  6      7.4950000             -0.1499810        
  7      2.7970000             -0.1272620        
  8      0.5215000              0.5445290        
S   1
  1      0.1596000              1.0000000        
P   3
  1      9.4390000              0.0381090        
  2      2.0020000              0.2094800        
  3      0.5456000              0.5085570        
P   1
  1      0.1517000              1.0000000        
D   1
  1      0.5500000              1.0000000        

O     8.0     3.41825    -0.00002    -0.00002
S   8
  1  11720.0000000              0.0007100        
  2   1759.0000000              0.0054700        
  3    400.8000000              0.0278370        
  4    113.7000000              0.1048000        
  5     37.0300000              0.2830620        
  6     13.2700000              0.4487190        
  7      5.0250000              0.2709520        
  8      1.0130000              0.0154580        
S   8
  1  11720.0000000             -0.0001600        
  2   1759.0000000             -0.0012630        
  3    400.8000000             -0.0062670        
  4    113.7000000             -0.0257160        
  5     37.0300000             -0.0709240        
  6     13.2700000             -0.1654110        
  7      5.0250000             -0.1169550        
  8      1.0130000              0.5573680        
S   1
  1      0.3023000              1.0000000        
P   3
  1     17.7000000              0.0430180        
  2      3.8540000              0.2289130        
  3      1.0460000              0.5087280        
P   1
  1      0.2753000              1.0000000        
D   1
  1      1.1850000              1.0000000        

C     6.0    -2.30299     0.00001     0.00001
S   8
  1   6665.0000000              0.0006920        
  2   1000.0000000              0.0053290        
  3    228.0000000              0.0270770        
  4     64.7100000              0.1017180        
  5     21.0600000              0.2747400        
  6      7.4950000              0.4485640        
  7      2.7970000              0.2850740        
  8      0.5215000              0.0152040        
S   8
  1   6665.0000000             -0.0001460        
  2   1000.0000000             -0.0011540        
  3    228.0000000             -0.0057250        
  4     64.7100000             -0.0233120        
  5     21.0600000             -0.0639550        
  6      7.4950000             -0.1499810        
  7      2.7970000             -0.1272620        
  8      0.5215000              0.5445290        
S   1
  1      0.1596000              1.0000000        
P   3
  1      9.4390000              0.0381090        
  2      2.0020000              0.2094800        
  3      0.5456000              0.5085570        
P   1
  1      0.1517000              1.0000000        
D   1
  1      0.5500000              1.0000000        

O     8.0    -3.41824     0.00002     0.00002
S   8
  1  11720.0000000              0.0007100        
  2   1759.0000000              0.0054700        
  3    400.8000000              0.0278370        
  4    113.7000000              0.1048000        
  5     37.0300000              0.2830620        
  6     13.2700000              0.4487190        
  7      5.0250000              0.2709520        
  8      1.0130000              0.0154580        
S   8
  1  11720.0000000             -0.0001600        
  2   1759.0000000             -0.0012630        
  3    400.8000000             -0.0062670        
  4    113.7000000             -0.0257160        
  5     37.0300000             -0.0709240        
  6     13.2700000             -0.1654110        
  7      5.0250000             -0.1169550        
  8      1.0130000              0.5573680        
S   1
  1      0.3023000              1.0000000        
P   3
  1     17.7000000              0.0430180        
  2      3.8540000              0.2289130        
  3      1.0460000              0.5087280        
P   1
  1      0.2753000              1.0000000        
D   1
  1      1.1850000              1.0000000        

C     6.0    -0.00000     0.00722    -2.34059
S   8
  1   6665.0000000              0.0006920        
  2   1000.0000000              0.0053290        
  3    228.0000000              0.0270770        
  4     64.7100000              0.1017180        
  5     21.0600000              0.2747400        
  6      7.4950000              0.4485640        
  7      2.7970000              0.2850740        
  8      0.5215000              0.0152040        
S   8
  1   6665.0000000             -0.0001460        
  2   1000.0000000             -0.0011540        
  3    228.0000000             -0.0057250        
  4     64.7100000             -0.0233120        
  5     21.0600000             -0.0639550        
  6      7.4950000             -0.1499810        
  7      2.7970000             -0.1272620        
  8      0.5215000              0.5445290        
S   1
  1      0.1596000              1.0000000        
P   3
  1      9.4390000              0.0381090        
  2      2.0020000              0.2094800        
  3      0.5456000              0.5085570        
P   1
  1      0.1517000              1.0000000        
D   1
  1      0.5500000              1.0000000        

O     8.0     0.00003     0.04156    -3.45492
S   8
  1  11720.0000000              0.0007100        
  2   1759.0000000              0.0054700        
  3    400.8000000              0.0278370        
  4    113.7000000              0.1048000        
  5     37.0300000              0.2830620        
  6     13.2700000              0.4487190        
  7      5.0250000              0.2709520        
  8      1.0130000              0.0154580        
S   8
  1  11720.0000000             -0.0001600        
  2   1759.0000000             -0.0012630        
  3    400.8000000             -0.0062670        
  4    113.7000000             -0.0257160        
  5     37.0300000             -0.0709240        
  6     13.2700000             -0.1654110        
  7      5.0250000             -0.1169550        
  8      1.0130000              0.5573680        
S   1
  1      0.3023000              1.0000000        
P   3
  1     17.7000000              0.0430180        
  2      3.8540000              0.2289130        
  3      1.0460000              0.5087280        
P   1
  1      0.2753000              1.0000000        
D   1
  1      1.1850000              1.0000000        

C     6.0    -0.00000    -2.33699     0.00658
S   8
  1   6665.0000000              0.0006920        
  2   1000.0000000              0.0053290        
  3    228.0000000              0.0270770        
  4     64.7100000              0.1017180        
  5     21.0600000              0.2747400        
  6      7.4950000              0.4485640        
  7      2.7970000              0.2850740        
  8      0.5215000              0.0152040        
S   8
  1   6665.0000000             -0.0001460        
  2   1000.0000000             -0.0011540        
  3    228.0000000             -0.0057250        
  4     64.7100000             -0.0233120        
  5     21.0600000             -0.0639550        
  6      7.4950000             -0.1499810        
  7      2.7970000             -0.1272620        
  8      0.5215000              0.5445290        
S   1
  1      0.1596000              1.0000000        
P   3
  1      9.4390000              0.0381090        
  2      2.0020000              0.2094800        
  3      0.5456000              0.5085570        
P   1
  1      0.1517000              1.0000000        
D   1
  1      0.5500000              1.0000000        

O     8.0     0.00002    -3.45135     0.04123
S   8
  1  11720.0000000              0.0007100        
  2   1759.0000000              0.0054700        
  3    400.8000000              0.0278370        
  4    113.7000000              0.1048000        
  5     37.0300000              0.2830620        
  6     13.2700000              0.4487190        
  7      5.0250000              0.2709520        
  8      1.0130000              0.0154580        
S   8
  1  11720.0000000             -0.0001600        
  2   1759.0000000             -0.0012630        
  3    400.8000000             -0.0062670        
  4    113.7000000             -0.0257160        
  5     37.0300000             -0.0709240        
  6     13.2700000             -0.1654110        
  7      5.0250000             -0.1169550        
  8      1.0130000              0.5573680        
S   1
  1      0.3023000              1.0000000        
P   3
  1     17.7000000              0.0430180        
  2      3.8540000              0.2289130        
  3      1.0460000              0.5087280        
P   1
  1      0.2753000              1.0000000        
D   1
  1      1.1850000              1.0000000        

C     6.0     0.00000     2.33699    -0.00658
S   8
  1   6665.0000000              0.0006920        
  2   1000.0000000              0.0053290        
  3    228.0000000              0.0270770        
  4     64.7100000              0.1017180        
  5     21.0600000              0.2747400        
  6      7.4950000              0.4485640        
  7      2.7970000              0.2850740        
  8      0.5215000              0.0152040        
S   8
  1   6665.0000000             -0.0001460        
  2   1000.0000000             -0.0011540        
  3    228.0000000             -0.0057250        
  4     64.7100000             -0.0233120        
  5     21.0600000             -0.0639550        
  6      7.4950000             -0.1499810        
  7      2.7970000             -0.1272620        
  8      0.5215000              0.5445290        
S   1
  1      0.1596000              1.0000000        
P   3
  1      9.4390000              0.0381090        
  2      2.0020000              0.2094800        
  3      0.5456000              0.5085570        
P   1
  1      0.1517000              1.0000000        
D   1
  1      0.5500000              1.0000000        

O     8.0    -0.00003     3.45135    -0.04123
S   8
  1  11720.0000000              0.0007100        
  2   1759.0000000              0.0054700        
  3    400.8000000              0.0278370        
  4    113.7000000              0.1048000        
  5     37.0300000              0.2830620        
  6     13.2700000              0.4487190        
  7      5.0250000              0.2709520        
  8      1.0130000              0.0154580        
S   8
  1  11720.0000000             -0.0001600        
  2   1759.0000000             -0.0012630        
  3    400.8000000             -0.0062670        
  4    113.7000000             -0.0257160        
  5     37.0300000             -0.0709240        
  6     13.2700000             -0.1654110        
  7      5.0250000             -0.1169550        
  8      1.0130000              0.5573680        
S   1
  1      0.3023000              1.0000000        
P   3
  1     17.7000000              0.0430180        
  2      3.8540000              0.2289130        
  3      1.0460000              0.5087280        
P   1
  1      0.2753000              1.0000000        
D   1
  1      1.1850000              1.0000000        

 $END
