!   File created by the GAMESS Input Deck Generator Plugin for Avogadro
 $CONTRL SCFTYP=ROHF RUNTYP=ENERGY DFTTYP=B3LYP MULT=5
   ISPHER=1 EXETYP=RUN COORD=UNIQUE MAXIT=200  ICHARG=2 ECP=READ $END
 $SYSTEM MEMORY=15000000 $END
 $GUESS  GUESS=HCORE $END
 $SCF DIRSCF=.TRUE. DIIS=.TRUE. ETHRSH=1.0 SWDIIS=0.009  $END
 $ECP 
Fe-QMC_SC GEN 10 2
3
16.00000000 1 3.72075632
59.53210107 3 3.92321272
-68.75847841 2 3.89595440
1
112.92561163 2 10.42343546
1
52.55882759 2 8.41664076
C-QMC GEN 2 1
3
4.00000000 1 8.35973821
33.43895285 3 4.48361888
-19.17537323 2 3.93831258
1
22.55164191 2 5.02991637
O-QMC GEN 2 1
3
6.00000000 1 9.29793903
55.78763416 3 8.86492204
-38.81978498 2 8.62925665
1
38.41914135 2 8.71924452
C-QMC
O-QMC
C-QMC
O-QMC
C-QMC
O-QMC
C-QMC
O-QMC
C-QMC
O-QMC
 $END
 $DATA 
Title
C1
Fe    26.0     0.00000    0.00000    0.00000
s 8 1.00
 1 25.882657     -0.010318
 2 14.037755     0.230364
 3 9.007794     -0.566551
 4 2.068350     0.544437
 5 0.993498     0.540001
 6 0.471151     0.143115
 7 0.102489     0.007386
 8 0.036902     0.001869
s 8 1.00
 1 25.882657     0.000341
 2 14.037755     -0.047646
 3 9.007794     0.136465
 4 2.068350     -0.153371
 5 0.993498     -0.288555
 6 0.471151     -0.044212
 7 0.102489     0.704768
 8 0.036902     0.415407
s 8 1.00
 1 25.882657     -0.030967
 2 14.037755     -0.034192
 3 9.007794     0.383443
 4 2.068350     -1.259192
 5 0.993498     -0.098913
 6 0.471151     1.194321
 7 0.102489     0.555024
 8 0.036902     -1.077563
s 8 1.00
 1 25.882657     0.429968
 2 14.037755     -1.786544
 3 9.007794     1.482641
 4 2.068350     2.684004
 5 0.993498     -6.152490
 6 0.471151     4.806621
 7 0.102489     -2.134831
 8 0.036902     0.805728
s 1 1.00
 1 0.017500     1.000000
p 7 1.00
 1 16.659389     0.007223
 2 10.450653     -0.070315
 3 4.183289     0.229161
 4 2.117962     0.393199
 5 1.064494     0.361596
 6 0.514743     0.154139
 7 0.210442     0.016498
p 7 1.00
 1 16.659389     -0.005560
 2 10.450653     0.063506
 3 4.183289     -0.276956
 4 2.117962     -0.321479
 5 1.064494     -0.004808
 6 0.514743     0.330833
 7 0.210442     0.357095
p 7 1.00
 1 16.659389     0.008185
 2 10.450653     -0.125348
 3 4.183289     0.657186
 4 2.117962     0.505908
 5 1.064494     -0.773757
 6 0.514743     -0.592779
 7 0.210442     0.185315
p 7 1.00
 1 16.659389     0.037533
 2 10.450653     0.089805
 3 4.183289     -1.569597
 4 2.117962     1.106861
 5 1.064494     1.129157
 6 0.514743     -1.167998
 7 0.210442     -0.795499
p 1 1.00
 1 0.105000     1.000000
d 6 1.00
 1 10.232413     0.081591
 2 4.841151     0.263190
 3 2.039827     0.342856
 4 0.840565     0.338326
 5 0.328485     0.240730
 6 0.116926     0.088375
d 6 1.00
 1 10.232413     -0.086500
 2 4.841151     -0.339738
 3 2.039827     -0.328882
 4 0.840565     0.130025
 5 0.328485     0.494941
 6 0.116926     0.365933
d 6 1.00
 1 10.232413     -0.101424
 2 4.841151     -0.548492
 3 2.039827     -0.002091
 4 0.840565     0.828457
 5 0.328485     -0.088206
 6 0.116926     -0.590958
d 1 1.00
 1 0.058000     1.000000
f 1 1.00
 1 1.340407     1.000000
f 1 1.00
 1 4.502410     1.000000
g 1 1.00
 1 3.599562     1.000000

C     6.0     0.00000    -0.00722     2.34059
s 9 1.00
1 0.051344     0.013991
2 0.102619     0.169852
3 0.205100     0.397529
4 0.409924     0.380369
5 0.819297     0.180113
6 1.637494     -0.033512
7 3.272791     -0.121499
8 6.541187     0.015176
9 13.073594     -0.000705
s 1 1.00
1 0.921552     1.000000
s 1 1.00
1 0.132800     1.000000
p 9 1.00
1 0.029281     0.001787
2 0.058547     0.050426
3 0.117063     0.191634
4 0.234064     0.302667
5 0.468003     0.289868
6 0.935757     0.210979
7 1.871016     0.112024
8 3.741035     0.054425
9 7.480076     0.021931
p 1 1.00
1 0.126772     1.000000
p 1 1.00
1 0.376742     1.000000
d 1 1.00
1 0.329486     1.000000
d 1 1.00
1 1.141611     1.000000
f 1 1.00
1 0.773485     1.000000

O     8.0    -0.00003    -0.04156     3.45492
s 9 1.00
1 0.125346     0.055741
2 0.268022     0.304848
3 0.573098     0.453752
4 1.225429     0.295926
5 2.620277     0.019567
6 5.602818     -0.128627
7 11.980245     0.012024
8 25.616801     0.000407
9 54.775216     -0.000076
s 1 1.00
1 1.686633     1.000000
s 1 1.00
1 0.237997     1.000000
p 9 1.00
1 0.083598     0.044958
2 0.167017     0.150175
3 0.333673     0.255999
4 0.666627     0.281879
5 1.331816     0.242835
6 2.660761     0.161134
7 5.315785     0.082308
8 10.620108     0.039899
9 21.217318     0.004679
p 1 1.00
1 0.184696     1.000000
p 1 1.00
1 0.600621     1.000000
d 1 1.00
1 0.669340     1.000000
d 1 1.00
1 2.404278     1.000000
f 1 1.00
1 1.423104     1.000000

C     6.0     2.30299    -0.00001    -0.00001
s 9 1.00
1 0.051344     0.013991
2 0.102619     0.169852
3 0.205100     0.397529
4 0.409924     0.380369
5 0.819297     0.180113
6 1.637494     -0.033512
7 3.272791     -0.121499
8 6.541187     0.015176
9 13.073594     -0.000705
s 1 1.00
1 0.921552     1.000000
s 1 1.00
1 0.132800     1.000000
p 9 1.00
1 0.029281     0.001787
2 0.058547     0.050426
3 0.117063     0.191634
4 0.234064     0.302667
5 0.468003     0.289868
6 0.935757     0.210979
7 1.871016     0.112024
8 3.741035     0.054425
9 7.480076     0.021931
p 1 1.00
1 0.126772     1.000000
p 1 1.00
1 0.376742     1.000000
d 1 1.00
1 0.329486     1.000000
d 1 1.00
1 1.141611     1.000000
f 1 1.00
1 0.773485     1.000000

O     8.0     3.41825    -0.00002    -0.00002
s 9 1.00
1 0.125346     0.055741
2 0.268022     0.304848
3 0.573098     0.453752
4 1.225429     0.295926
5 2.620277     0.019567
6 5.602818     -0.128627
7 11.980245     0.012024
8 25.616801     0.000407
9 54.775216     -0.000076
s 1 1.00
1 1.686633     1.000000
s 1 1.00
1 0.237997     1.000000
p 9 1.00
1 0.083598     0.044958
2 0.167017     0.150175
3 0.333673     0.255999
4 0.666627     0.281879
5 1.331816     0.242835
6 2.660761     0.161134
7 5.315785     0.082308
8 10.620108     0.039899
9 21.217318     0.004679
p 1 1.00
1 0.184696     1.000000
p 1 1.00
1 0.600621     1.000000
d 1 1.00
1 0.669340     1.000000
d 1 1.00
1 2.404278     1.000000
f 1 1.00
1 1.423104     1.000000

C     6.0    -2.30299     0.00001     0.00001
s 9 1.00
1 0.051344     0.013991
2 0.102619     0.169852
3 0.205100     0.397529
4 0.409924     0.380369
5 0.819297     0.180113
6 1.637494     -0.033512
7 3.272791     -0.121499
8 6.541187     0.015176
9 13.073594     -0.000705
s 1 1.00
1 0.921552     1.000000
s 1 1.00
1 0.132800     1.000000
p 9 1.00
1 0.029281     0.001787
2 0.058547     0.050426
3 0.117063     0.191634
4 0.234064     0.302667
5 0.468003     0.289868
6 0.935757     0.210979
7 1.871016     0.112024
8 3.741035     0.054425
9 7.480076     0.021931
p 1 1.00
1 0.126772     1.000000
p 1 1.00
1 0.376742     1.000000
d 1 1.00
1 0.329486     1.000000
d 1 1.00
1 1.141611     1.000000
f 1 1.00
1 0.773485     1.000000

O     8.0    -3.41824     0.00002     0.00002
s 9 1.00
1 0.125346     0.055741
2 0.268022     0.304848
3 0.573098     0.453752
4 1.225429     0.295926
5 2.620277     0.019567
6 5.602818     -0.128627
7 11.980245     0.012024
8 25.616801     0.000407
9 54.775216     -0.000076
s 1 1.00
1 1.686633     1.000000
s 1 1.00
1 0.237997     1.000000
p 9 1.00
1 0.083598     0.044958
2 0.167017     0.150175
3 0.333673     0.255999
4 0.666627     0.281879
5 1.331816     0.242835
6 2.660761     0.161134
7 5.315785     0.082308
8 10.620108     0.039899
9 21.217318     0.004679
p 1 1.00
1 0.184696     1.000000
p 1 1.00
1 0.600621     1.000000
d 1 1.00
1 0.669340     1.000000
d 1 1.00
1 2.404278     1.000000
f 1 1.00
1 1.423104     1.000000

C     6.0    -0.00000     0.00722    -2.34059
s 9 1.00
1 0.051344     0.013991
2 0.102619     0.169852
3 0.205100     0.397529
4 0.409924     0.380369
5 0.819297     0.180113
6 1.637494     -0.033512
7 3.272791     -0.121499
8 6.541187     0.015176
9 13.073594     -0.000705
s 1 1.00
1 0.921552     1.000000
s 1 1.00
1 0.132800     1.000000
p 9 1.00
1 0.029281     0.001787
2 0.058547     0.050426
3 0.117063     0.191634
4 0.234064     0.302667
5 0.468003     0.289868
6 0.935757     0.210979
7 1.871016     0.112024
8 3.741035     0.054425
9 7.480076     0.021931
p 1 1.00
1 0.126772     1.000000
p 1 1.00
1 0.376742     1.000000
d 1 1.00
1 0.329486     1.000000
d 1 1.00
1 1.141611     1.000000
f 1 1.00
1 0.773485     1.000000

O     8.0     0.00003     0.04156    -3.45492
s 9 1.00
1 0.125346     0.055741
2 0.268022     0.304848
3 0.573098     0.453752
4 1.225429     0.295926
5 2.620277     0.019567
6 5.602818     -0.128627
7 11.980245     0.012024
8 25.616801     0.000407
9 54.775216     -0.000076
s 1 1.00
1 1.686633     1.000000
s 1 1.00
1 0.237997     1.000000
p 9 1.00
1 0.083598     0.044958
2 0.167017     0.150175
3 0.333673     0.255999
4 0.666627     0.281879
5 1.331816     0.242835
6 2.660761     0.161134
7 5.315785     0.082308
8 10.620108     0.039899
9 21.217318     0.004679
p 1 1.00
1 0.184696     1.000000
p 1 1.00
1 0.600621     1.000000
d 1 1.00
1 0.669340     1.000000
d 1 1.00
1 2.404278     1.000000
f 1 1.00
1 1.423104     1.000000

C     6.0    -0.00000    -2.33699     0.00658
s 9 1.00
1 0.051344     0.013991
2 0.102619     0.169852
3 0.205100     0.397529
4 0.409924     0.380369
5 0.819297     0.180113
6 1.637494     -0.033512
7 3.272791     -0.121499
8 6.541187     0.015176
9 13.073594     -0.000705
s 1 1.00
1 0.921552     1.000000
s 1 1.00
1 0.132800     1.000000
p 9 1.00
1 0.029281     0.001787
2 0.058547     0.050426
3 0.117063     0.191634
4 0.234064     0.302667
5 0.468003     0.289868
6 0.935757     0.210979
7 1.871016     0.112024
8 3.741035     0.054425
9 7.480076     0.021931
p 1 1.00
1 0.126772     1.000000
p 1 1.00
1 0.376742     1.000000
d 1 1.00
1 0.329486     1.000000
d 1 1.00
1 1.141611     1.000000
f 1 1.00
1 0.773485     1.000000

O     8.0     0.00002    -3.45135     0.04123
s 9 1.00
1 0.125346     0.055741
2 0.268022     0.304848
3 0.573098     0.453752
4 1.225429     0.295926
5 2.620277     0.019567
6 5.602818     -0.128627
7 11.980245     0.012024
8 25.616801     0.000407
9 54.775216     -0.000076
s 1 1.00
1 1.686633     1.000000
s 1 1.00
1 0.237997     1.000000
p 9 1.00
1 0.083598     0.044958
2 0.167017     0.150175
3 0.333673     0.255999
4 0.666627     0.281879
5 1.331816     0.242835
6 2.660761     0.161134
7 5.315785     0.082308
8 10.620108     0.039899
9 21.217318     0.004679
p 1 1.00
1 0.184696     1.000000
p 1 1.00
1 0.600621     1.000000
d 1 1.00
1 0.669340     1.000000
d 1 1.00
1 2.404278     1.000000
f 1 1.00
1 1.423104     1.000000

C     6.0     0.00000     2.33699    -0.00658
s 9 1.00
1 0.051344     0.013991
2 0.102619     0.169852
3 0.205100     0.397529
4 0.409924     0.380369
5 0.819297     0.180113
6 1.637494     -0.033512
7 3.272791     -0.121499
8 6.541187     0.015176
9 13.073594     -0.000705
s 1 1.00
1 0.921552     1.000000
s 1 1.00
1 0.132800     1.000000
p 9 1.00
1 0.029281     0.001787
2 0.058547     0.050426
3 0.117063     0.191634
4 0.234064     0.302667
5 0.468003     0.289868
6 0.935757     0.210979
7 1.871016     0.112024
8 3.741035     0.054425
9 7.480076     0.021931
p 1 1.00
1 0.126772     1.000000
p 1 1.00
1 0.376742     1.000000
d 1 1.00
1 0.329486     1.000000
d 1 1.00
1 1.141611     1.000000
f 1 1.00
1 0.773485     1.000000

O     8.0    -0.00003     3.45135    -0.04123
s 9 1.00
1 0.125346     0.055741
2 0.268022     0.304848
3 0.573098     0.453752
4 1.225429     0.295926
5 2.620277     0.019567
6 5.602818     -0.128627
7 11.980245     0.012024
8 25.616801     0.000407
9 54.775216     -0.000076
s 1 1.00
1 1.686633     1.000000
s 1 1.00
1 0.237997     1.000000
p 9 1.00
1 0.083598     0.044958
2 0.167017     0.150175
3 0.333673     0.255999
4 0.666627     0.281879
5 1.331816     0.242835
6 2.660761     0.161134
7 5.315785     0.082308
8 10.620108     0.039899
9 21.217318     0.004679
p 1 1.00
1 0.184696     1.000000
p 1 1.00
1 0.600621     1.000000
d 1 1.00
1 0.669340     1.000000
d 1 1.00
1 2.404278     1.000000
f 1 1.00
1 1.423104     1.000000

 $END
