&inputpp
  write_psir = .false.
  prefix = 'atomO'
  outdir = 'out'
/
