&inputpp
  write_psir = .false.
  prefix = 'O.q0'
  outdir = 'q0_output'
/
