&CONTROL
   calculation     = 'scf'
   disk_io         = 'low'
   prefix          = 'O.q0'
   outdir          = './'
   pseudo_dir      = './'
   restart_mode    = 'from_scratch'
   tprnfor         = .false.
   tstress         = .false.
   verbosity       = 'high'
   wf_collect      = .true.
/

&SYSTEM
   celldm(1)       = 1.0
   degauss         = 0.0001
   ecutrho         = 800
   ecutwfc         = 200
   ibrav           = 0
   input_dft       = 'lda'
   nat             = 1
   nosym           = .true.
   nspin           = 2
   ntyp            = 1
   occupations     = 'smearing'
   smearing        = 'fermi-dirac'
   tot_charge      = 0
   tot_magnetization = 2
/

&ELECTRONS
   conv_thr        = 1e-06
   electron_maxstep = 1000
   mixing_beta     = 0.2
/


ATOMIC_SPECIES 
   O  15.999 O.BFD.upf

ATOMIC_POSITIONS alat
   O       14.17294600      14.17294741      14.17294883 

K_POINTS automatic
   1 1 1  0 0 0 

CELL_PARAMETERS cubic
        28.34589199       0.00000000       0.00000000 
         0.00000000      28.34589483       0.00000000 
        -0.00000000       0.00000000      28.34589766 


