 $CONTRL SCFTYP=MCSCF RUNTYP=ENERGY MULT=1
   ISPHER=1 EXETYP=RUN COORD=UNIQUE MAXIT=200 ECP=READ $END
 $SYSTEM MEMORY=150000000 $END
 $SCF DIRSCF=.TRUE. $END
 $GUESS GUESS=MOREAD NORB=57 $END
 $DET GROUP=C2v NELS=8 NACT=8 PRTTOL=0.001 $END
 $MCSCF MAXIT=200 $END
 $ECP
O-QMC GEN 2 1
 3
 6.00000000 1 9.29793903
 55.78763416 3 8.86492204
 -38.81978498 2 8.62925665
 1
 38.41914135 2 8.71924452
H-QMC  GEN 0 0
3
1.00000000 1 4.47692410
4.47692410 3 2.97636451
-4.32112340 2 3.01841596
H-QMC
 $END
 $DATA
H2O
CNV      2

O           8.0      0.0000000000      0.0000000000      0.0000000000
   S       9
     1              0.1253460000  0.05574100
     2              0.2680220000  0.30484800
     3              0.5730980000  0.45375200
     4              1.2254290000  0.29592600
     5              2.6202770000  0.01956700
     6              5.6028180000 -0.12862700
     7             11.9802450000  0.01202400
     8             25.6168010000  0.00040700
     9             54.7752160000 -0.00007600
   S       1
     1              1.6866330000  1.00000000
   S       1
     1              0.2379970000  1.00000000
   P       9
     1              0.0835980000  0.04495800
     2              0.1670170000  0.15017500
     3              0.3336730000  0.25599900
     4              0.6666270000  0.28187900
     5              1.3318160000  0.24283500
     6              2.6607610000  0.16113400
     7              5.3157850000  0.08230800
     8             10.6201080000  0.03989900
     9             21.2173180000  0.00467900
   P       1
     1              0.1846960000  1.00000000
   P       1
     1              0.6006210000  1.00000000
   D       1
     1              0.6693400000  1.00000000
   D       1
     1              2.4042780000  1.00000000
   F       1
     1              1.4231040000  1.00000000

H           1.0      0.0000000000      0.7571600000      0.5862600000
s 6 1.00
1 6.359201     -0.004943
2 3.546637     0.049579
3 1.493442     0.037176
4 0.551948     0.287908
5 0.207203     0.009543
6 0.079234     0.770084
s 6 1.00
1 6.359201     -0.016672
2 3.546637     -0.005774
3 1.493442     -0.227982
4 0.551948     -0.285652
5 0.207203     -1.071579
6 0.079234     1.423767
s 6 1.00
1 6.359201     -0.018886
2 3.546637     -0.058854
3 1.493442     -0.556988
4 0.551948     -1.084022
5 0.207203     2.721525
6 0.079234     -1.458091
s 1 1.00
1 0.102700     1.000000
p 1 1.00
1 1.407000     1.000000
p 1 1.00
1 0.388000     1.000000
d 1 1.00
1 1.057000     1.000000

 $END
--- OPTIMIZED MCSCF MO-S --- GENERATED AT Wed May 18 22:17:23 2016
 $VEC
 1  1 8.57620336E-01-6.90825010E-03-1.05124127E-01 0.00000000E+00 0.00000000E+00
 1  2 1.28904263E-01 0.00000000E+00 0.00000000E+00-4.45298821E-02 0.00000000E+00
 1  3 0.00000000E+00-2.15414507E-02-2.67434522E-04 1.41100929E-03-1.14357476E-03
 1  4 0.00000000E+00 0.00000000E+00 0.00000000E+00-4.33122733E-03 2.64917922E-03
 1  5 1.68204812E-03 0.00000000E+00 0.00000000E+00 0.00000000E+00 0.00000000E+00
 1  6 0.00000000E+00-1.68009420E-03 0.00000000E+00-1.88203814E-03 0.00000000E+00
 1  7 4.13612103E-03 0.00000000E+00 0.00000000E+00 0.00000000E+00 1.54326541E-01
 1  8 4.42990469E-02-8.59789666E-04 0.00000000E+00 2.61635509E-02-1.57004580E-02
 1  9 0.00000000E+00 1.19367453E-02-8.28973275E-03-3.54075377E-03 4.36533825E-03
 1 10-8.24584475E-04 0.00000000E+00 0.00000000E+00-5.19433103E-03 1.54326541E-01
 1 11 4.42990469E-02-8.59789666E-04 0.00000000E+00-2.61635509E-02-1.57004580E-02
 1 12 0.00000000E+00-1.19367453E-02-8.28973275E-03-3.54075377E-03 4.36533825E-03
 1 13-8.24584475E-04 0.00000000E+00 0.00000000E+00 5.19433103E-03
 2  1 0.00000000E+00 0.00000000E+00 0.00000000E+00 0.00000000E+00 7.59247993E-01
 2  2 0.00000000E+00 0.00000000E+00-1.20996994E-01 0.00000000E+00 0.00000000E+00
 2  3-4.11580033E-02 0.00000000E+00 0.00000000E+00 0.00000000E+00 0.00000000E+00
 2  4 0.00000000E+00 0.00000000E+00 1.72421419E-02 0.00000000E+00 0.00000000E+00
 2  5 0.00000000E+00 0.00000000E+00 0.00000000E+00 1.22488921E-02 0.00000000E+00
 2  6 1.70541743E-03 0.00000000E+00-4.99990838E-03 0.00000000E+00 0.00000000E+00
 2  7 0.00000000E+00 0.00000000E+00 2.71185080E-03 0.00000000E+00-2.58371985E-01
 2  8-1.95401665E-01 1.00363208E-02 0.00000000E+00-1.86888146E-02 2.65503553E-02
 2  9 0.00000000E+00-2.97298510E-02 1.50133114E-02 4.56049587E-03-1.63097587E-03
 2 10-2.92952000E-03 0.00000000E+00 0.00000000E+00 7.56917842E-03 2.58371985E-01
 2 11 1.95401665E-01-1.00363208E-02 0.00000000E+00-1.86888146E-02-2.65503553E-02
 2 12 0.00000000E+00-2.97298510E-02-1.50133114E-02-4.56049587E-03 1.63097587E-03
 2 13 2.92952000E-03 0.00000000E+00 0.00000000E+00 7.56917842E-03
 3  1-3.08101381E-01-6.13443243E-03-8.25152885E-02 0.00000000E+00 0.00000000E+00
 3  2 8.28934487E-01 0.00000000E+00 0.00000000E+00-1.49803944E-02 0.00000000E+00
 3  3 0.00000000E+00-1.85403628E-02-1.48592707E-02-1.88770868E-03 1.67469794E-02
 3  4 0.00000000E+00 0.00000000E+00 0.00000000E+00-5.05741046E-03 1.74998807E-04
 3  5 4.88241165E-03 0.00000000E+00 0.00000000E+00 0.00000000E+00 0.00000000E+00
 3  6 0.00000000E+00-9.61747895E-04 0.00000000E+00-4.16381410E-03 0.00000000E+00
 3  7 5.45413430E-03 0.00000000E+00 0.00000000E+00 0.00000000E+00 1.56798006E-01
 3  8 5.82839587E-02-6.46295285E-03 0.00000000E+00 1.80214221E-02 9.75657143E-03
 3  9 0.00000000E+00-2.53852365E-03 3.06580098E-02-1.72943772E-03 4.80436374E-03
 3 10-3.07492602E-03 0.00000000E+00 0.00000000E+00 1.14839906E-03 1.56798006E-01
 3 11 5.82839587E-02-6.46295285E-03 0.00000000E+00-1.80214221E-02 9.75657143E-03
 3 12 0.00000000E+00 2.53852365E-03 3.06580098E-02-1.72943772E-03 4.80436374E-03
 3 13-3.07492602E-03 0.00000000E+00 0.00000000E+00-1.14839906E-03
 4  1 0.00000000E+00 0.00000000E+00 0.00000000E+00 9.35392546E-01 0.00000000E+00
 4  2 0.00000000E+00 8.74336429E-03 0.00000000E+00 0.00000000E+00 7.21379810E-03
 4  3 0.00000000E+00 0.00000000E+00 0.00000000E+00 0.00000000E+00 0.00000000E+00
 4  4 0.00000000E+00 1.66605107E-02 0.00000000E+00 0.00000000E+00 0.00000000E+00
 4  5 0.00000000E+00 0.00000000E+00 5.00139601E-03 0.00000000E+00-3.57706957E-03
 4  6 0.00000000E+00 0.00000000E+00 0.00000000E+00 0.00000000E+00 3.29948657E-03
 4  7 0.00000000E+00 1.49965586E-03 0.00000000E+00 0.00000000E+00 0.00000000E+00
 4  8 0.00000000E+00 0.00000000E+00 2.52464417E-02 0.00000000E+00 0.00000000E+00
 4  9 3.14132570E-02 0.00000000E+00 0.00000000E+00 0.00000000E+00 0.00000000E+00
 4 10 0.00000000E+00 5.23760713E-03-3.45389532E-03 0.00000000E+00 0.00000000E+00
 4 11 0.00000000E+00 0.00000000E+00 2.52464417E-02 0.00000000E+00 0.00000000E+00
 4 12 3.14132570E-02 0.00000000E+00 0.00000000E+00 0.00000000E+00 0.00000000E+00
 4 13 0.00000000E+00-5.23760713E-03-3.45389532E-03 0.00000000E+00
 5  1 7.47774252E-01 1.63198205E-01-4.92983103E-01 0.00000000E+00 0.00000000E+00
 5  2 1.22856060E+00 0.00000000E+00 0.00000000E+00-5.81742768E-01 0.00000000E+00
 5  3 0.00000000E+00-2.96906327E-01-2.96824245E-04-2.30277288E-02 2.33245531E-02
 5  4 0.00000000E+00 0.00000000E+00 0.00000000E+00-2.13594252E-02 7.20432382E-03
 5  5 1.41551014E-02 0.00000000E+00 0.00000000E+00 0.00000000E+00 0.00000000E+00
 5  6 0.00000000E+00 2.04741821E-03 0.00000000E+00-1.38739397E-02 0.00000000E+00
 5  7 1.11270399E-02 0.00000000E+00 0.00000000E+00 0.00000000E+00-4.31392611E-01
 5  8-7.11352297E-02-2.00881063E-03 0.00000000E+00-2.20796535E-02-2.80619683E-02
 5  9 0.00000000E+00 1.66514230E-02-4.62789248E-02-6.24279510E-03-1.80093005E-03
 5 10 8.04372514E-03 0.00000000E+00 0.00000000E+00-2.47880008E-02-4.31392611E-01
 5 11-7.11352297E-02-2.00881063E-03 0.00000000E+00 2.20796535E-02-2.80619683E-02
 5 12 0.00000000E+00-1.66514230E-02-4.62789248E-02-6.24279510E-03-1.80093005E-03
 5 13 8.04372514E-03 0.00000000E+00 0.00000000E+00 2.47880008E-02
 6  1 0.00000000E+00 0.00000000E+00 0.00000000E+00 0.00000000E+00 1.42081120E+00
 6  2 0.00000000E+00 0.00000000E+00-5.82973149E-01 0.00000000E+00 0.00000000E+00
 6  3-3.50636354E-01 0.00000000E+00 0.00000000E+00 0.00000000E+00 0.00000000E+00
 6  4 0.00000000E+00 0.00000000E+00-1.01408434E-01 0.00000000E+00 0.00000000E+00
 6  5 0.00000000E+00 0.00000000E+00 0.00000000E+00-3.72282929E-02 0.00000000E+00
 6  6-9.00002256E-05 0.00000000E+00-1.27233858E-02 0.00000000E+00 0.00000000E+00
 6  7 0.00000000E+00 0.00000000E+00 1.28441337E-02 0.00000000E+00 4.24017374E-01
 6  8 1.62433065E-01 3.97226172E-02 0.00000000E+00-1.79132822E-02 9.83958726E-03
 6  9 0.00000000E+00 2.30259874E-03 2.08570588E-02 1.20012596E-02-1.22248947E-02
 6 10 2.23635074E-04 0.00000000E+00 0.00000000E+00 2.17395173E-02-4.24017374E-01
 6 11-1.62433065E-01-3.97226172E-02 0.00000000E+00-1.79132822E-02-9.83958726E-03
 6 12 0.00000000E+00 2.30259874E-03-2.08570588E-02-1.20012596E-02 1.22248947E-02
 6 13-2.23635074E-04 0.00000000E+00 0.00000000E+00 2.17395173E-02
 7  1-1.15205608E+00-3.97618379E-01 1.35349375E+00 0.00000000E+00 0.00000000E+00
 7  2 9.89357550E-01 0.00000000E+00 0.00000000E+00-7.13562368E-01 0.00000000E+00
 7  3 0.00000000E+00-5.12263194E-01 4.73890252E-02-2.86686552E-03-4.45221597E-02
 7  4 0.00000000E+00 0.00000000E+00 0.00000000E+00 4.78131957E-02 5.00752476E-03
 7  5-5.28207204E-02 0.00000000E+00 0.00000000E+00 0.00000000E+00 0.00000000E+00
 7  6 0.00000000E+00 1.66231274E-02 0.00000000E+00-8.68778026E-03 0.00000000E+00
 7  7-1.36144855E-02 0.00000000E+00 0.00000000E+00 0.00000000E+00 1.31335620E-01
 7  8-6.70266355E-02 1.71055448E-02 0.00000000E+00 3.32481161E-02-1.00784768E-01
 7  9 0.00000000E+00-4.13547298E-03-8.00413988E-02-1.27550014E-02-2.92507054E-03
 7 10 1.56800719E-02 0.00000000E+00 0.00000000E+00-3.41801255E-02 1.31335620E-01
 7 11-6.70266355E-02 1.71055448E-02 0.00000000E+00-3.32481161E-02-1.00784768E-01
 7 12 0.00000000E+00 4.13547298E-03-8.00413988E-02-1.27550014E-02-2.92507054E-03
 7 13 1.56800719E-02 0.00000000E+00 0.00000000E+00 3.41801255E-02
 8  1 0.00000000E+00 0.00000000E+00 0.00000000E+00 0.00000000E+00 6.31293288E-01
 8  2 0.00000000E+00 0.00000000E+00-4.75776520E-01 0.00000000E+00 0.00000000E+00
 8  3-5.72517148E-01 0.00000000E+00 0.00000000E+00 0.00000000E+00 0.00000000E+00
 8  4 0.00000000E+00 0.00000000E+00 5.17936635E-01 0.00000000E+00 0.00000000E+00
 8  5 0.00000000E+00 0.00000000E+00 0.00000000E+00 3.80584725E-01 0.00000000E+00
 8  6 9.69762354E-03 0.00000000E+00-4.37029956E-03 0.00000000E+00 0.00000000E+00
 8  7 0.00000000E+00 0.00000000E+00-8.64042771E-03 0.00000000E+00-7.75183260E-02
 8  8-8.97923800E-02 2.05125856E-02 0.00000000E+00-1.60702740E-01 5.19685982E-02
 8  9 0.00000000E+00-7.11617517E-02 1.28501576E-02 4.38433382E-02-5.51477969E-02
 8 10 1.13044587E-02 0.00000000E+00 0.00000000E+00 6.06950940E-02 7.75183260E-02
 8 11 8.97923800E-02-2.05125856E-02 0.00000000E+00-1.60702740E-01-5.19685982E-02
 8 12 0.00000000E+00-7.11617517E-02-1.28501576E-02-4.38433382E-02 5.51477969E-02
 8 13-1.13044587E-02 0.00000000E+00 0.00000000E+00 6.06950940E-02
 9  1-2.06207626E-02-6.36103163E-03-6.91079856E-01 0.00000000E+00 0.00000000E+00
 9  2-3.16286598E-02 0.00000000E+00 0.00000000E+00-3.44590661E-01 0.00000000E+00
 9  3 0.00000000E+00-1.18027616E-02 1.76854000E-02-8.32709275E-03-9.35830722E-03
 9  4 0.00000000E+00 0.00000000E+00 0.00000000E+00-2.65774399E-03 2.67545894E-03
 9  5-1.77149520E-05 0.00000000E+00 0.00000000E+00 0.00000000E+00 0.00000000E+00
 9  6 0.00000000E+00 1.39417413E-03 0.00000000E+00 2.09550085E-03 0.00000000E+00
 9  7-3.96598172E-03 0.00000000E+00 0.00000000E+00 0.00000000E+00 6.73485933E-02
 9  8 7.70690587E-01-7.31706383E-01 0.00000000E+00 2.54207457E-02-1.61223837E-02
 9  9 0.00000000E+00 1.27915485E-01-1.10755824E-01-2.23243934E-03 2.02065116E-03
 9 10 2.11788177E-04 0.00000000E+00 0.00000000E+00-3.92366867E-03 6.73485933E-02
 9 11 7.70690587E-01-7.31706383E-01 0.00000000E+00-2.54207457E-02-1.61223837E-02
 9 12 0.00000000E+00-1.27915485E-01-1.10755824E-01-2.23243934E-03 2.02065116E-03
 9 13 2.11788177E-04 0.00000000E+00 0.00000000E+00 3.92366867E-03
10  1 0.00000000E+00 0.00000000E+00 0.00000000E+00 0.00000000E+00-5.19407106E-02
10  2 0.00000000E+00 0.00000000E+00 4.06594440E-01 0.00000000E+00 0.00000000E+00
10  3-4.75813758E-02 0.00000000E+00 0.00000000E+00 0.00000000E+00 0.00000000E+00
10  4 0.00000000E+00 0.00000000E+00-2.94885341E-02 0.00000000E+00 0.00000000E+00
10  5 0.00000000E+00 0.00000000E+00 0.00000000E+00-7.89610426E-03 0.00000000E+00
10  6-3.41165597E-04 0.00000000E+00 1.00818935E-03 0.00000000E+00 0.00000000E+00
10  7 0.00000000E+00 0.00000000E+00-5.50467666E-04 0.00000000E+00-2.54144823E-02
10  8 2.99964427E-01 2.48024433E+00 0.00000000E+00-8.82039701E-03 8.97663606E-04
10  9 0.00000000E+00 3.84869659E-01-8.44390194E-02-2.97880652E-05 3.59043889E-03
10 10-3.56065083E-03 0.00000000E+00 0.00000000E+00 3.57605560E-03 2.54144823E-02
10 11-2.99964427E-01-2.48024433E+00 0.00000000E+00-8.82039701E-03-8.97663606E-04
10 12 0.00000000E+00 3.84869659E-01 8.44390194E-02 2.97880652E-05-3.59043889E-03
10 13 3.56065083E-03 0.00000000E+00 0.00000000E+00 3.57605560E-03
11  1 0.00000000E+00 0.00000000E+00 0.00000000E+00-3.48322341E-01 0.00000000E+00
11  2 0.00000000E+00-8.58149508E-01 0.00000000E+00 0.00000000E+00 2.67241717E-03
11  3 0.00000000E+00 0.00000000E+00 0.00000000E+00 0.00000000E+00 0.00000000E+00
11  4 0.00000000E+00-2.78915817E-02 0.00000000E+00 0.00000000E+00 0.00000000E+00
11  5 0.00000000E+00 0.00000000E+00 8.86922767E-03 0.00000000E+00 3.52217590E-03
11  6 0.00000000E+00 0.00000000E+00 0.00000000E+00 0.00000000E+00-4.06471194E-03
11  7 0.00000000E+00-6.60782904E-04 0.00000000E+00 0.00000000E+00 0.00000000E+00
11  8 0.00000000E+00 0.00000000E+00-1.79450784E-02 0.00000000E+00 0.00000000E+00
11  9 9.68093053E-01 0.00000000E+00 0.00000000E+00 0.00000000E+00 0.00000000E+00
11 10 0.00000000E+00 1.41905052E-02-8.09902030E-03 0.00000000E+00 0.00000000E+00
11 11 0.00000000E+00 0.00000000E+00-1.79450784E-02 0.00000000E+00 0.00000000E+00
11 12 9.68093053E-01 0.00000000E+00 0.00000000E+00 0.00000000E+00 0.00000000E+00
11 13 0.00000000E+00-1.41905052E-02-8.09902030E-03 0.00000000E+00
12  1-6.38426478E-03 5.27678503E-03 1.38666872E+00 0.00000000E+00 0.00000000E+00
12  2 2.64437715E-03 0.00000000E+00 0.00000000E+00 8.37640601E-01 0.00000000E+00
12  3 0.00000000E+00-1.49190739E-02-2.20179548E-02-1.00189076E-03 2.30198455E-02
12  4 0.00000000E+00 0.00000000E+00 0.00000000E+00-1.81793338E-03 1.14435342E-02
12  5-9.62560079E-03 0.00000000E+00 0.00000000E+00 0.00000000E+00 0.00000000E+00
12  6 0.00000000E+00-1.67696466E-03 0.00000000E+00-2.47297107E-03 0.00000000E+00
12  7 4.72285525E-03 0.00000000E+00 0.00000000E+00 0.00000000E+00 1.20995828E-02
12  8-4.36771522E-01-1.92241084E-02 0.00000000E+00-9.35640944E-03 5.66449129E-03
12  9 0.00000000E+00-9.79389689E-01-1.53125386E-01-9.03475928E-04-1.27536320E-02
12 10 1.36571079E-02 0.00000000E+00 0.00000000E+00 2.24803254E-04 1.20995828E-02
12 11-4.36771522E-01-1.92241084E-02 0.00000000E+00 9.35640944E-03 5.66449129E-03
12 12 0.00000000E+00 9.79389689E-01-1.53125386E-01-9.03475928E-04-1.27536320E-02
12 13 1.36571079E-02 0.00000000E+00 0.00000000E+00-2.24803254E-04
13  1 0.00000000E+00 0.00000000E+00 0.00000000E+00 0.00000000E+00 0.00000000E+00
13  2 0.00000000E+00 0.00000000E+00 0.00000000E+00 0.00000000E+00 0.00000000E+00
13  3 0.00000000E+00 0.00000000E+00 0.00000000E+00 0.00000000E+00 0.00000000E+00
13  4 1.26775900E-02 0.00000000E+00 0.00000000E+00 0.00000000E+00 0.00000000E+00
13  5 0.00000000E+00-1.35238133E-02 0.00000000E+00 0.00000000E+00 0.00000000E+00
13  6 0.00000000E+00 0.00000000E+00 0.00000000E+00 0.00000000E+00 0.00000000E+00
13  7 0.00000000E+00 0.00000000E+00 0.00000000E+00 1.11326616E-03 0.00000000E+00
13  8 0.00000000E+00 0.00000000E+00-1.05873513E-02 0.00000000E+00 0.00000000E+00
13  9 1.05118839E+00 0.00000000E+00 0.00000000E+00 0.00000000E+00 0.00000000E+00
13 10 0.00000000E+00 1.32196448E-02-1.13410370E-02 0.00000000E+00 0.00000000E+00
13 11 0.00000000E+00 0.00000000E+00 1.05873513E-02 0.00000000E+00 0.00000000E+00
13 12-1.05118839E+00 0.00000000E+00 0.00000000E+00 0.00000000E+00 0.00000000E+00
13 13 0.00000000E+00 1.32196448E-02 1.13410370E-02 0.00000000E+00
14  1 0.00000000E+00 0.00000000E+00 0.00000000E+00 0.00000000E+00 1.43403605E-01
14  2 0.00000000E+00 0.00000000E+00 2.80509409E+00 0.00000000E+00 0.00000000E+00
14  3 3.93808993E-02 0.00000000E+00 0.00000000E+00 0.00000000E+00 0.00000000E+00
14  4 0.00000000E+00 0.00000000E+00 4.05026673E-02 0.00000000E+00 0.00000000E+00
14  5 0.00000000E+00 0.00000000E+00 0.00000000E+00-9.29139870E-03 0.00000000E+00
14  6 1.25404466E-03 0.00000000E+00-4.16277585E-03 0.00000000E+00 0.00000000E+00
14  7 0.00000000E+00 0.00000000E+00 2.48029839E-03 0.00000000E+00 8.15915191E-02
14  8 4.43570178E+00 7.69784723E-01 0.00000000E+00 3.35439805E-02-1.45895436E-02
14  9 0.00000000E+00 1.88500887E+00-2.06352829E+00-1.59598768E-02 9.44302084E-03
14 10 6.51685596E-03 0.00000000E+00 0.00000000E+00-2.03110727E-02-8.15915191E-02
14 11-4.43570178E+00-7.69784723E-01 0.00000000E+00 3.35439805E-02 1.45895436E-02
14 12 0.00000000E+00 1.88500887E+00 2.06352829E+00 1.59598768E-02-9.44302084E-03
14 13-6.51685596E-03 0.00000000E+00 0.00000000E+00-2.03110727E-02
15  1-1.23873075E-02 8.58367469E-04-1.41592098E+00 0.00000000E+00 0.00000000E+00
15  2-1.94323016E-01 0.00000000E+00 0.00000000E+00 1.51183409E+00 0.00000000E+00
15  3 0.00000000E+00-2.56561370E-01-2.53644235E-02-3.00501842E-02 5.54146077E-02
15  4 0.00000000E+00 0.00000000E+00 0.00000000E+00 1.10594294E-02 1.88859565E-03
15  5-1.29480251E-02 0.00000000E+00 0.00000000E+00 0.00000000E+00 0.00000000E+00
15  6 0.00000000E+00 4.99469993E-03 0.00000000E+00-2.56203671E-03 0.00000000E+00
15  7-4.13905643E-03 0.00000000E+00 0.00000000E+00 0.00000000E+00 9.48291064E-02
15  8-2.22936955E-01 3.08924521E-01 0.00000000E+00-1.98261213E-02-1.05251427E-02
15  9 0.00000000E+00 5.65337613E-01-1.06489458E+00-1.62692937E-02-5.79544463E-04
15 10 1.68488382E-02 0.00000000E+00 0.00000000E+00-3.97236271E-02 9.48291064E-02
15 11-2.22936955E-01 3.08924521E-01 0.00000000E+00 1.98261213E-02-1.05251427E-02
15 12 0.00000000E+00-5.65337613E-01-1.06489458E+00-1.62692937E-02-5.79544463E-04
15 13 1.68488382E-02 0.00000000E+00 0.00000000E+00 3.97236271E-02
16  1 0.00000000E+00 0.00000000E+00 0.00000000E+00 0.00000000E+00 9.00892582E-02
16  2 0.00000000E+00 0.00000000E+00-1.00075612E+00 0.00000000E+00 0.00000000E+00
16  3 3.17900445E-01 0.00000000E+00 0.00000000E+00 0.00000000E+00 0.00000000E+00
16  4 0.00000000E+00 0.00000000E+00 1.75415733E-01 0.00000000E+00 0.00000000E+00
16  5 0.00000000E+00 0.00000000E+00 0.00000000E+00 2.12855752E-02 0.00000000E+00
16  6-1.36296764E-03 0.00000000E+00-9.73306181E-03 0.00000000E+00 0.00000000E+00
16  7 0.00000000E+00 0.00000000E+00 1.15616748E-02 0.00000000E+00 3.80196328E-02
16  8 1.46256321E+00 9.66899752E-01 0.00000000E+00 3.72278216E-02-7.72602838E-02
16  9 0.00000000E+00 2.07255489E+00 6.99917864E-01-3.84401110E-02 4.50383896E-02
16 10-6.59827861E-03 0.00000000E+00 0.00000000E+00-3.77402383E-02-3.80196328E-02
16 11-1.46256321E+00-9.66899752E-01 0.00000000E+00 3.72278216E-02 7.72602838E-02
16 12 0.00000000E+00 2.07255489E+00-6.99917864E-01 3.84401110E-02-4.50383896E-02
16 13 6.59827861E-03 0.00000000E+00 0.00000000E+00-3.77402383E-02
17  1 0.00000000E+00 0.00000000E+00 0.00000000E+00-5.08347343E-01 0.00000000E+00
17  2 0.00000000E+00 2.28175164E+00 0.00000000E+00 0.00000000E+00-5.20330150E-01
17  3 0.00000000E+00 0.00000000E+00 0.00000000E+00 0.00000000E+00 0.00000000E+00
17  4 0.00000000E+00-2.28870918E-02 0.00000000E+00 0.00000000E+00 0.00000000E+00
17  5 0.00000000E+00 0.00000000E+00-1.17075444E-02 0.00000000E+00-3.52413333E-03
17  6 0.00000000E+00 0.00000000E+00 0.00000000E+00 0.00000000E+00 3.27351014E-03
17  7 0.00000000E+00 1.45461088E-03 0.00000000E+00 0.00000000E+00 0.00000000E+00
17  8 0.00000000E+00 0.00000000E+00-5.90219954E-02 0.00000000E+00 0.00000000E+00
17  9-6.46860626E-01 0.00000000E+00 0.00000000E+00 0.00000000E+00 0.00000000E+00
17 10 0.00000000E+00-1.33692564E-02-3.39920444E-03 0.00000000E+00 0.00000000E+00
17 11 0.00000000E+00 0.00000000E+00-5.90219954E-02 0.00000000E+00 0.00000000E+00
17 12-6.46860626E-01 0.00000000E+00 0.00000000E+00 0.00000000E+00 0.00000000E+00
17 13 0.00000000E+00 1.33692564E-02-3.39920444E-03 0.00000000E+00
18  1-3.46429440E-01-1.35877440E-01 4.82376793E+00 0.00000000E+00 0.00000000E+00
18  2-1.14992620E-01 0.00000000E+00 0.00000000E+00 3.67613770E-01 0.00000000E+00
18  3 0.00000000E+00 6.07554161E-01-3.02678619E-01 2.76963169E-01 2.57154503E-02
18  4 0.00000000E+00 0.00000000E+00 0.00000000E+00-7.19774851E-03 7.05538835E-03
18  5 1.42360161E-04 0.00000000E+00 0.00000000E+00 0.00000000E+00 0.00000000E+00
18  6 0.00000000E+00-3.24106284E-02 0.00000000E+00-4.05953982E-02 0.00000000E+00
18  7 8.40788192E-02 0.00000000E+00 0.00000000E+00 0.00000000E+00 2.68923726E-01
18  8-2.57856791E+00 2.80293176E-01 0.00000000E+00-3.51645241E-01 2.41666625E-01
18  9 0.00000000E+00-5.59910773E-01 7.56366324E-01 6.89634901E-02-5.64534717E-02
18 10-1.25100184E-02 0.00000000E+00 0.00000000E+00 1.23235711E-01 2.68923726E-01
18 11-2.57856791E+00 2.80293176E-01 0.00000000E+00 3.51645241E-01 2.41666625E-01
18 12 0.00000000E+00 5.59910773E-01 7.56366324E-01 6.89634901E-02-5.64534717E-02
18 13-1.25100184E-02 0.00000000E+00 0.00000000E+00-1.23235711E-01
19  1 0.00000000E+00 0.00000000E+00 0.00000000E+00 0.00000000E+00-2.63046880E-01
19  2 0.00000000E+00 0.00000000E+00 6.76942287E+00 0.00000000E+00 0.00000000E+00
19  3 3.46667482E-01 0.00000000E+00 0.00000000E+00 0.00000000E+00 0.00000000E+00
19  4 0.00000000E+00 0.00000000E+00 6.27622240E-01 0.00000000E+00 0.00000000E+00
19  5 0.00000000E+00 0.00000000E+00 0.00000000E+00-3.04639207E-04 0.00000000E+00
19  6 6.08676091E-03 0.00000000E+00-5.13575827E-02 0.00000000E+00 0.00000000E+00
19  7 0.00000000E+00 0.00000000E+00 4.31913360E-02 0.00000000E+00-1.84664058E-01
19  8 1.03541051E+01 3.46234310E-01 0.00000000E+00 3.01203689E-01-2.80171944E-01
19  9 0.00000000E+00 3.07464715E+00-2.30892436E+00-5.20385095E-02 5.22102991E-02
19 10-1.71789628E-04 0.00000000E+00 0.00000000E+00-1.03035985E-01 1.84664058E-01
19 11-1.03541051E+01-3.46234310E-01 0.00000000E+00 3.01203689E-01 2.80171944E-01
19 12 0.00000000E+00 3.07464715E+00 2.30892436E+00 5.20385095E-02-5.22102991E-02
19 13 1.71789628E-04 0.00000000E+00 0.00000000E+00-1.03035985E-01
20  1-1.47913180E+00-1.86879770E-01 5.06982095E+00 0.00000000E+00 0.00000000E+00
20  2 2.26402999E-01 0.00000000E+00 0.00000000E+00 1.35763772E+00 0.00000000E+00
20  3 0.00000000E+00-3.44334912E-01 3.27146538E-01-2.05288280E-02-3.06617710E-01
20  4 0.00000000E+00 0.00000000E+00 0.00000000E+00 1.36431091E-02-4.84325464E-03
20  5-8.79985446E-03 0.00000000E+00 0.00000000E+00 0.00000000E+00 0.00000000E+00
20  6 0.00000000E+00 2.06527352E-03 0.00000000E+00-4.54328273E-04 0.00000000E+00
20  7-2.31652692E-03 0.00000000E+00 0.00000000E+00 0.00000000E+00-4.62092608E-01
20  8-1.53852431E+00 3.44003596E-02 0.00000000E+00-9.84531833E-02-1.56863921E-01
20  9 0.00000000E+00-5.99294205E-01 5.46147748E-01 4.70865020E-02-8.13921666E-03
20 10-3.89472854E-02 0.00000000E+00 0.00000000E+00-2.53964242E-02-4.62092608E-01
20 11-1.53852431E+00 3.44003596E-02 0.00000000E+00 9.84531833E-02-1.56863921E-01
20 12 0.00000000E+00 5.99294205E-01 5.46147748E-01 4.70865020E-02-8.13921666E-03
20 13-3.89472854E-02 0.00000000E+00 0.00000000E+00 2.53964242E-02
21  1 0.00000000E+00 0.00000000E+00 0.00000000E+00 0.00000000E+00 3.91070549E-01
21  2 0.00000000E+00 0.00000000E+00 2.32933389E+00 0.00000000E+00 0.00000000E+00
21  3-1.70722197E+00 0.00000000E+00 0.00000000E+00 0.00000000E+00 0.00000000E+00
21  4 0.00000000E+00 0.00000000E+00 3.34084200E-02 0.00000000E+00 0.00000000E+00
21  5 0.00000000E+00 0.00000000E+00 0.00000000E+00 2.72783937E-02 0.00000000E+00
21  6-1.22596267E-02 0.00000000E+00 6.77065638E-02 0.00000000E+00 0.00000000E+00
21  7 0.00000000E+00 0.00000000E+00-5.12585486E-02 0.00000000E+00 3.36579436E-01
21  8 2.29685074E-01 3.41521769E-01 0.00000000E+00-6.46308202E-01 2.64362044E-01
21  9 0.00000000E+00-2.53510867E-01-4.70765403E-01 7.66802439E-02-6.10265004E-02
21 10-1.56537435E-02 0.00000000E+00 0.00000000E+00 2.23004978E-01-3.36579436E-01
21 11-2.29685074E-01-3.41521769E-01 0.00000000E+00-6.46308202E-01-2.64362044E-01
21 12 0.00000000E+00-2.53510867E-01 4.70765403E-01-7.66802439E-02 6.10265004E-02
21 13 1.56537435E-02 0.00000000E+00 0.00000000E+00 2.23004978E-01
22  1-7.82741087E-01-1.04612286E-01 3.09557099E+00 0.00000000E+00 0.00000000E+00
22  2-1.55857441E-01 0.00000000E+00 0.00000000E+00 7.40897132E-01 0.00000000E+00
22  3 0.00000000E+00 2.42091861E-01 3.44662560E-02-4.72230464E-01 4.37764208E-01
22  4 0.00000000E+00 0.00000000E+00 0.00000000E+00 3.55475463E-03-8.15877136E-03
22  5 4.60401673E-03 0.00000000E+00 0.00000000E+00 0.00000000E+00 0.00000000E+00
22  6 0.00000000E+00-1.50341795E-04 0.00000000E+00-9.01856219E-03 0.00000000E+00
22  7 9.22026687E-03 0.00000000E+00 0.00000000E+00 0.00000000E+00-2.28319950E-01
22  8-9.32486736E-01 2.29496912E-02 0.00000000E+00 1.76516633E-01 3.77600801E-01
22  9 0.00000000E+00-6.63055534E-01 3.44293875E-02 1.25028124E-02-6.94574106E-02
22 10 5.69545982E-02 0.00000000E+00 0.00000000E+00 4.34811714E-02-2.28319950E-01
22 11-9.32486736E-01 2.29496912E-02 0.00000000E+00-1.76516633E-01 3.77600801E-01
22 12 0.00000000E+00 6.63055534E-01 3.44293875E-02 1.25028124E-02-6.94574106E-02
22 13 5.69545982E-02 0.00000000E+00 0.00000000E+00-4.34811714E-02
23  1 0.00000000E+00 0.00000000E+00 0.00000000E+00 0.00000000E+00 0.00000000E+00
23  2 0.00000000E+00 0.00000000E+00 0.00000000E+00 0.00000000E+00 0.00000000E+00
23  3 0.00000000E+00 0.00000000E+00 0.00000000E+00 0.00000000E+00 0.00000000E+00
23  4 6.90467278E-01 0.00000000E+00 0.00000000E+00 0.00000000E+00 0.00000000E+00
23  5 0.00000000E+00 3.18297037E-03 0.00000000E+00 0.00000000E+00 0.00000000E+00
23  6 0.00000000E+00 0.00000000E+00 0.00000000E+00 0.00000000E+00 0.00000000E+00
23  7 0.00000000E+00 0.00000000E+00 0.00000000E+00 1.81981706E-02 0.00000000E+00
23  8 0.00000000E+00 0.00000000E+00-4.30144212E-01 0.00000000E+00 0.00000000E+00
23  9 5.20776982E-01 0.00000000E+00 0.00000000E+00 0.00000000E+00 0.00000000E+00
23 10 0.00000000E+00 8.70519132E-02-2.47178338E-02 0.00000000E+00 0.00000000E+00
23 11 0.00000000E+00 0.00000000E+00 4.30144212E-01 0.00000000E+00 0.00000000E+00
23 12-5.20776982E-01 0.00000000E+00 0.00000000E+00 0.00000000E+00 0.00000000E+00
23 13 0.00000000E+00 8.70519132E-02 2.47178338E-02 0.00000000E+00
24  1 0.00000000E+00 0.00000000E+00 0.00000000E+00-3.88561718E-01 0.00000000E+00
24  2 0.00000000E+00 7.15172564E-01 0.00000000E+00 0.00000000E+00 7.83293625E-02
24  3 0.00000000E+00 0.00000000E+00 0.00000000E+00 0.00000000E+00 0.00000000E+00
24  4 0.00000000E+00 7.06650397E-01 0.00000000E+00 0.00000000E+00 0.00000000E+00
24  5 0.00000000E+00 0.00000000E+00-3.22198299E-03 0.00000000E+00-1.49401370E-02
24  6 0.00000000E+00 0.00000000E+00 0.00000000E+00 0.00000000E+00 9.72878858E-03
24  7 0.00000000E+00 1.03155086E-02 0.00000000E+00 0.00000000E+00 0.00000000E+00
24  8 0.00000000E+00 0.00000000E+00 3.92810869E-01 0.00000000E+00 0.00000000E+00
24  9-4.46994306E-01 0.00000000E+00 0.00000000E+00 0.00000000E+00 0.00000000E+00
24 10 0.00000000E+00-2.64240898E-02 1.10385869E-01 0.00000000E+00 0.00000000E+00
24 11 0.00000000E+00 0.00000000E+00 3.92810869E-01 0.00000000E+00 0.00000000E+00
24 12-4.46994306E-01 0.00000000E+00 0.00000000E+00 0.00000000E+00 0.00000000E+00
24 13 0.00000000E+00 2.64240898E-02 1.10385869E-01 0.00000000E+00
25  1-5.46862363E-01-8.08320187E-02 1.29937619E+00 0.00000000E+00 0.00000000E+00
25  2 1.59033417E-01 0.00000000E+00 0.00000000E+00 5.94724083E-01 0.00000000E+00
25  3 0.00000000E+00-4.38505503E-01-6.25272723E-01 4.61311764E-01 1.63960959E-01
25  4 0.00000000E+00 0.00000000E+00 0.00000000E+00-5.87679737E-03 5.09559016E-04
25  5 5.36723836E-03 0.00000000E+00 0.00000000E+00 0.00000000E+00 0.00000000E+00
25  6 0.00000000E+00 7.01103350E-03 0.00000000E+00 2.28086877E-02 0.00000000E+00
25  7-3.22149761E-02 0.00000000E+00 0.00000000E+00 0.00000000E+00-4.14385516E-01
25  8-2.00786428E-01-8.73070947E-03 0.00000000E+00 3.34332817E-01-2.13160404E-01
25  9 0.00000000E+00-2.26000748E-01 7.80071004E-02-5.92447412E-02 3.20217939E-02
25 10 2.72229473E-02 0.00000000E+00 0.00000000E+00 2.44474404E-01-4.14385516E-01
25 11-2.00786428E-01-8.73070947E-03 0.00000000E+00-3.34332817E-01-2.13160404E-01
25 12 0.00000000E+00 2.26000748E-01 7.80071004E-02-5.92447412E-02 3.20217939E-02
25 13 2.72229473E-02 0.00000000E+00 0.00000000E+00-2.44474404E-01
26  1 0.00000000E+00 0.00000000E+00 0.00000000E+00 0.00000000E+00-1.49423574E-01
26  2 0.00000000E+00 0.00000000E+00 3.52731755E-01 0.00000000E+00 0.00000000E+00
26  3-2.46011711E-01 0.00000000E+00 0.00000000E+00 0.00000000E+00 0.00000000E+00
26  4 0.00000000E+00 0.00000000E+00 1.42346202E-01 0.00000000E+00 0.00000000E+00
26  5 0.00000000E+00 0.00000000E+00 0.00000000E+00 2.10245460E-02 0.00000000E+00
26  6 2.71384272E-02 0.00000000E+00 1.97763232E-02 0.00000000E+00 0.00000000E+00
26  7 0.00000000E+00 0.00000000E+00-5.61863439E-02 0.00000000E+00 1.75231914E-01
26  8-6.02121497E-01-1.49496015E-01 0.00000000E+00 2.14736702E-01 7.63357775E-01
26  9 0.00000000E+00-5.31102065E-01-4.18034789E-01-1.92489056E-02-1.13268760E-01
26 10 1.32517665E-01 0.00000000E+00 0.00000000E+00-6.23462502E-02-1.75231914E-01
26 11 6.02121497E-01 1.49496015E-01 0.00000000E+00 2.14736702E-01-7.63357775E-01
26 12 0.00000000E+00-5.31102065E-01 4.18034789E-01 1.92489056E-02 1.13268760E-01
26 13-1.32517665E-01 0.00000000E+00 0.00000000E+00-6.23462502E-02
27  1 0.00000000E+00 0.00000000E+00 0.00000000E+00-3.48030677E-01 0.00000000E+00
27  2 0.00000000E+00-2.15730774E-01 0.00000000E+00 0.00000000E+00 2.85003141E-01
27  3 0.00000000E+00 0.00000000E+00 0.00000000E+00 0.00000000E+00 0.00000000E+00
27  4 0.00000000E+00-6.23100020E-01 0.00000000E+00 0.00000000E+00 0.00000000E+00
27  5 0.00000000E+00 0.00000000E+00 4.85589564E-03 0.00000000E+00-3.27765218E-02