 $CONTRL SCFTYP=ROHF  COORD=UNIQUE UNITS=BOHR
  MULT=2 RUNTYP=ENERGY ICHARG=1 ISPHER=1 $END
 $BASIS  GBASIS=CCD $END
 $DATA
HCN+
C1
C           6.0   0.0000000000   0.0000000000   0.000
N           7.0   0.0000000000   0.0000000000  -2.158067079
H           1.0   0.0000000000   0.8  1.4
 $END
