 $contrl coord=unique icharg=0 ispher=1 mult=1 units=angs  $end
 $basis  gbasis=ccd  $end
 $DATA
A molecule.
C1
H 1.00      -0.09580000      -1.21200000       0.88190000
C 6.00      -0.04630000      -0.56650000       0.00000000
H 1.00      -0.09520000      -1.19380000      -0.89460000
H 1.00       2.10500000      -0.37200000      -0.01770000
H 1.00       1.24260000       0.93070000      -0.87040000
C 6.00       1.21750000       0.26680000       0.00000000
H 1.00       1.26160000       0.90520000       0.88860000
O 8.00      -1.17120000       0.29970000       0.00000000
H 1.00      -1.12910000       0.83640000       0.80990000
 $END
