 &CONTROL
                 calculation = 'scf' ,
                restart_mode = 'from_scratch' ,
                  wf_collect = .true. ,
                      outdir = './output' ,
                  pseudo_dir = '../pseudo/' ,
                      prefix = 'fe' ,
               etot_conv_thr = 1.0D-9 ,
               forc_conv_thr = 1.0D-6 ,
                     tstress = .true. ,
                     tprnfor = .true. ,
 /
 &SYSTEM
                       ibrav = 1,
                   celldm(1) = 15,
                         nat = 2,
                        ntyp = 1,
                     ecutwfc = 100 ,
                     ecutrho = 300 ,
                        nbnd = 18,
                 occupations = 'smearing' ,
                     degauss = 0.0005 ,
                    smearing = 'methfessel-paxton' ,
                       nspin = 2 ,
             assume_isolated = 'martyna-tuckerman'
   starting_magnetization(1) = 0.9,
                  lda_plus_u = .true. ,
                Hubbard_U(1) = 3.1,
                starting_ns_eigenvalue(1,2,1) = 0.0
                starting_ns_eigenvalue(2,2,1) = 0.0476060
                starting_ns_eigenvalue(3,2,1) = 0.0476060
                starting_ns_eigenvalue(4,2,1) = 0.9654373
                starting_ns_eigenvalue(5,2,1) = 0.9954307

 /
 &ELECTRONS
                    conv_thr = 1.0e-9 ,
                 mixing_beta = 0.7 ,
             diagonalization = 'david' ,
             mixing_fixed_ns = 500,
 /
ATOMIC_SPECIES
   Fe   58.69000  Fe.pbe-nd-rrkjus.UPF 
ATOMIC_POSITIONS angstrom 
   Fe      2.070000000    0.000000000    0.000000000    
   Fe      0.000000000    0.000000000    0.000000000    
K_POINTS automatic 
  1 1 1   1 1 1 