&CONTROL
   calculation     = 'scf'
   disk_io         = 'low'
   outdir          = 'pwscf_output'
   prefix          = 'pwscf'
   pseudo_dir      = './'
   restart_mode    = 'from_scratch'
   tprnfor         = .true.
   tstress         = .true.
   verbosity       = 'low'
   wf_collect      = .true.
/

&SYSTEM
   celldm(1)       = 1.0
   degauss         = 0.0001
   ecutrho         = 200
   ecutwfc         = 50
   ibrav           = 0
   input_dft       = 'pbe'
   nat             = 24
   nosym           = .false.
   ntyp            = 1
   occupations     = 'smearing'
   smearing        = 'fermi-dirac'
   tot_charge      = 0
/

&ELECTRONS
   conv_thr        = 1e-08
   diagonalization = 'david'
   electron_maxstep = 1000
   mixing_beta     = 0.7
   mixing_mode     = 'plain'
/


ATOMIC_SPECIES 
   H  1.00794 H.coulomb-ae.UPF

ATOMIC_POSITIONS alat
   H        3.49790500       1.10331477      -1.63103260 
   H        1.59703318       7.96075266       1.63101861 
   H        1.61115926       3.42881547       2.79757836 
   H        3.48377819       5.63524371      -2.79759230 
   H        2.91074001       1.00238844      -0.41677384 
   H        2.18419571       8.06167889       0.41676493 
   H        4.75992695       3.52983433      -0.41677727 
   H        0.33501284       5.53422497       0.41676834 
   H        2.72824832       1.14243742       1.97791120 
   H        2.36668793       7.92162899      -1.97792584 
   H        2.38081434       3.38969007      -2.45070113 
   H        2.71412514       5.67437022       2.45068649 
   H        0.94917121       1.12889343      -1.35519174 
   H        4.14576692       7.93517280       1.35517997 
   H        1.59830132       3.40314300      -1.35519459 
   H        3.49663618       5.66091742       1.35518292 
   H        4.51235622       1.16001389       0.77340826 
   H        0.58258267       7.90405231      -0.77341991 
   H        3.15830788       3.37221148       0.77340658 
   H        1.93662878       5.69184887      -0.77341840 
   H        0.72942373       1.26173042       0.62669086 
   H        4.36551473       7.80233586      -0.62670299 
   H        1.81804100       3.27030512       0.62669135 
   H        3.27689621       5.79375508      -0.62670351 

K_POINTS automatic
   8 8 8  1 1 1 

CELL_PARAMETERS cubic
         2.56160212       0.00009626      -4.42861435 
        -0.02825572       9.06387666      -0.00000600 
         2.56159141       0.00009038       4.42860816 


