&CONTROL
       title = 'Ni-2x2-110-6L-METADISE-surf-selct-rlxd' ,
       calculation = 'relax' ,
       restart_mode = 'from_scratch' ,
       outdir = './tmp' ,
       pseudo_dir = '/home/eliot/pseudo' ,
       prefix = 'ni-110-2x2-6L-metaD-rlxd',
       tstress = .true. ,
       tprnfor = .true. ,
       nstep = 100
/
 &SYSTEM
       ibrav = 0,
       celldm(1) = 1.88972599,
       nat = 48,
       ntyp = 1,
       ecutwfc = 60,
       ecutrho = 650,
       occupations='smearing',
       smearing='mp',
       degauss=0.005,
       nbnd=250,
       nspin=2,
       starting_magnetization(1)=0.5,
/
 &ELECTRONS
        conv_thr = 1.0D-6,
        mixing_mode = 'local-TF'
        mixing_beta = 0.2,
        electron_maxstep = 150
/
 &IONS
/
ATOMIC_SPECIES
        Ni 58.6934   Ni.pbe-nd-rrkjus.UPF
ATOMIC_POSITIONS (alat)
Ni   1.7610461960    1.2452477079    0.0000000000 
Ni   1.7610461960    3.7357431222    0.0000000000
Ni   3.5220923930    7.4714862452    1.2452477072
Ni   3.5220923930    4.9809908301    1.2452477079
Ni   1.7610461960    3.7357431230    2.4904954151
Ni   1.7610461960    6.2262385373    2.4904954151
Ni   3.5220923930    9.9619816603    3.7357431223
Ni   3.5220923930    7.4714862452    3.7357431230
Ni   1.7610461960    6.2262385381    4.9809908302
Ni   1.7610461960    8.7167339524    4.9809908302
Ni   3.5220923930   12.4524770754    6.2262385374
Ni   3.5220923930    9.9619816603    6.2262385381
Ni   1.7610461960    6.2262385380    0.0000000000
Ni   1.7610461960    8.7167339523    0.0000000000
Ni   3.5220923930   12.4524770753    1.2452477072
Ni   3.5220923930    9.9619816602    1.2452477079
Ni   1.7610461960    8.7167339531    2.4904954151
Ni   1.7610461960   11.2072293674    2.4904954151
Ni   3.5220923930   14.9429724904    3.7357431223
Ni   3.5220923930   12.4524770753    3.7357431230
Ni   1.7610461960   11.2072293682    4.9809908302
Ni   1.7610461960   13.6977247825    4.9809908302
Ni   3.5220923930   17.4334679055    6.2262385374
Ni   3.5220923930   14.9429724904    6.2262385381
Ni   5.2831385890    1.2452477079    0.0000000000
Ni   5.2831385890    3.7357431222    0.0000000000
Ni   7.0441847860    7.4714862452    1.2452477072
Ni   7.0441847860    4.9809908301    1.2452477079
Ni   5.2831385890    3.7357431230    2.4904954151
Ni   5.2831385890    6.2262385373    2.4904954151
Ni   7.0441847860    9.9619816603    3.7357431223
Ni   7.0441847860    7.4714862452    3.7357431230
Ni   5.2831385890    6.2262385381    4.9809908302
Ni   5.2831385890    8.7167339524    4.9809908302
Ni   7.0441847860   12.4524770754    6.2262385374
Ni   7.0441847860    9.9619816603    6.2262385381
Ni   5.2831385890    6.2262385380    0.0000000000
Ni   5.2831385890    8.7167339523    0.0000000000
Ni   7.0441847860   12.4524770753    1.2452477072
Ni   7.0441847860    9.9619816602    1.2452477079
Ni   5.2831385890    8.7167339531    2.4904954151
Ni   5.2831385890   11.2072293674    2.4904954151
Ni   7.0441847860   14.9429724904    3.7357431223
Ni   7.0441847860   12.4524770753    3.7357431230
Ni   5.2831385890   11.2072293682    4.9809908302
Ni   5.2831385890   13.6977247825    4.9809908302
Ni   7.0441847860   17.4334679055    6.2262385374
Ni   7.0441847860   14.9429724904    6.2262385381
K_POINTS automatic
  5 5 1   0 0 0
CELL_PARAMETERS
 +7.0441847860  +0.0000000000  +0.0000000000
 +0.0000000000  +9.9619816602  +0.0000000000
 -0.0000000000  +0.0000000000 +19.4714862453
