&inputpp
  prefix = 'O.q0'
  outdir = './'
  write_psir = .false.
/
