 &control
    calculation = 'nscf'
    restart_mode='from_scratch',
    prefix='NiO-fcc',
    tstress = .true.
    tprnfor = .true.
    pseudo_dir = 'pw_pseudo/',
    outdir='./out',
 /
 &system
    ibrav     = 0,
    celldm(1) = 7.8811,
    nat       = 4,
    ntyp      = 3,
    ecutwfc   = 400,
    lda_plus_u = .true.,
    Hubbard_U(2) = 6.5,
    Hubbard_U(3) = 6.5,
    occupations='smearing',
    smearing='mv', degauss=0.002,
    nspin=2, 
    starting_magnetization(2)= 1.0,
    starting_magnetization(3)=-1.0,
    nosym=.true.
    noinv=.true.
 /
 &electrons
    mixing_beta = 0.7
    conv_thr =  1.0d-10
    diagonalization = 'cg'
 /
CELL_PARAMETERS
0.50 0.50  1.00
0.00 0.50 -0.50
0.50 0.00 -0.50
ATOMIC_SPECIES
 O    1.  O.ncpp
 Ni   1.  Ni.opt.upf
 Ni1  1.  Ni.opt.upf
ATOMIC_POSITIONS crystal
 O  0.75 0.25 0.25
 O  0.25 0.75 0.75
 Ni  0.0  0.0  0.0 
 Ni1 0.5  0.5  0.5
K_POINTS {crystal}
256
  -0.49609375000000  0.05468750000000  -0.10546875000000  2.00000000000000
  -0.49218750000000  0.10937500000000  0.28906250000000  2.00000000000000
  -0.48828125000000  0.16406250000000  -0.31640625000000  2.00000000000000
  -0.48437500000000  0.21875000000000  0.07812500000000  2.00000000000000
  -0.48046875000000  0.27343750000000  0.47265625000000  2.00000000000000
  -0.47656250000000  0.32812500000000  -0.13281250000000  2.00000000000000
  -0.47265625000000  0.38281250000000  0.26171875000000  2.00000000000000
  -0.46875000000000  0.43750000000000  -0.34375000000000  2.00000000000000
  -0.46484375000000  0.49218750000000  0.05078125000000  2.00000000000000
  -0.46093750000000  -0.45312500000000  0.44531250000000  2.00000000000000
  -0.45703125000000  -0.39843750000000  -0.16015625000000  2.00000000000000
  -0.45312500000000  -0.34375000000000  0.23437500000000  2.00000000000000
  -0.44921875000000  -0.28906250000000  -0.37109375000000  2.00000000000000
  -0.44531250000000  -0.23437500000000  0.02343750000000  2.00000000000000
  -0.44140625000000  -0.17968750000000  0.41796875000000  2.00000000000000
  -0.43750000000000  -0.12500000000000  -0.18750000000000  2.00000000000000
  -0.43359375000000  -0.07031250000000  0.20703125000000  2.00000000000000
  -0.42968750000000  -0.01562500000000  -0.39843750000000  2.00000000000000
  -0.42578125000000  0.03906250000000  -0.00390625000000  2.00000000000000
  -0.42187500000000  0.09375000000000  0.39062500000000  2.00000000000000
  -0.41796875000000  0.14843750000000  -0.21484375000000  2.00000000000000
  -0.41406250000000  0.20312500000000  0.17968750000000  2.00000000000000
  -0.41015625000000  0.25781250000000  -0.42578125000000  2.00000000000000
  -0.40625000000000  0.31250000000000  -0.03125000000000  2.00000000000000
  -0.40234375000000  0.36718750000000  0.36328125000000  2.00000000000000
  -0.39843750000000  0.42187500000000  -0.24218750000000  2.00000000000000
  -0.39453125000000  0.47656250000000  0.15234375000000  2.00000000000000
  -0.39062500000000  -0.46875000000000  -0.45312500000000  2.00000000000000
  -0.38671875000000  -0.41406250000000  -0.05859375000000  2.00000000000000
  -0.38281250000000  -0.35937500000000  0.33593750000000  2.00000000000000
  -0.37890625000000  -0.30468750000000  -0.26953125000000  2.00000000000000
  -0.37500000000000  -0.25000000000000  0.12500000000000  2.00000000000000
  -0.37109375000000  -0.19531250000000  -0.48046875000000  2.00000000000000
  -0.36718750000000  -0.14062500000000  -0.08593750000000  2.00000000000000
  -0.36328125000000  -0.08593750000000  0.30859375000000  2.00000000000000
  -0.35937500000000  -0.03125000000000  -0.29687500000000  2.00000000000000
  -0.35546875000000  0.02343750000000  0.09765625000000  2.00000000000000
  -0.35156250000000  0.07812500000000  0.49218750000000  2.00000000000000
  -0.34765625000000  0.13281250000000  -0.11328125000000  2.00000000000000
  -0.34375000000000  0.18750000000000  0.28125000000000  2.00000000000000
  -0.33984375000000  0.24218750000000  -0.32421875000000  2.00000000000000
  -0.33593750000000  0.29687500000000  0.07031250000000  2.00000000000000
  -0.33203125000000  0.35156250000000  0.46484375000000  2.00000000000000
  -0.32812500000000  0.40625000000000  -0.14062500000000  2.00000000000000
  -0.32421875000000  0.46093750000000  0.25390625000000  2.00000000000000
  -0.32031250000000  -0.48437500000000  -0.35156250000000  2.00000000000000
  -0.31640625000000  -0.42968750000000  0.04296875000000  2.00000000000000
  -0.31250000000000  -0.37500000000000  0.43750000000000  2.00000000000000
  -0.30859375000000  -0.32031250000000  -0.16796875000000  2.00000000000000
  -0.30468750000000  -0.26562500000000  0.22656250000000  2.00000000000000
  -0.30078125000000  -0.21093750000000  -0.37890625000000  2.00000000000000
  -0.29687500000000  -0.15625000000000  0.01562500000000  2.00000000000000
  -0.29296875000000  -0.10156250000000  0.41015625000000  2.00000000000000
  -0.28906250000000  -0.04687500000000  -0.19531250000000  2.00000000000000
  -0.28515625000000  0.00781250000000  0.19921875000000  2.00000000000000
  -0.28125000000000  0.06250000000000  -0.40625000000000  2.00000000000000
  -0.27734375000000  0.11718750000000  -0.01171875000000  2.00000000000000
  -0.27343750000000  0.17187500000000  0.38281250000000  2.00000000000000
  -0.26953125000000  0.22656250000000  -0.22265625000000  2.00000000000000
  -0.26562500000000  0.28125000000000  0.17187500000000  2.00000000000000
  -0.26171875000000  0.33593750000000  -0.43359375000000  2.00000000000000
  -0.25781250000000  0.39062500000000  -0.03906250000000  2.00000000000000
  -0.25390625000000  0.44531250000000  0.35546875000000  2.00000000000000
  -0.25000000000000  0.50000000000000  -0.25000000000000  2.00000000000000
  -0.24609375000000  -0.44531250000000  0.14453125000000  2.00000000000000
  -0.24218750000000  -0.39062500000000  -0.46093750000000  2.00000000000000
  -0.23828125000000  -0.33593750000000  -0.06640625000000  2.00000000000000
  -0.23437500000000  -0.28125000000000  0.32812500000000  2.00000000000000
  -0.23046875000000  -0.22656250000000  -0.27734375000000  2.00000000000000
  -0.22656250000000  -0.17187500000000  0.11718750000000  2.00000000000000
  -0.22265625000000  -0.11718750000000  -0.48828125000000  2.00000000000000
  -0.21875000000000  -0.06250000000000  -0.09375000000000  2.00000000000000
  -0.21484375000000  -0.00781250000000  0.30078125000000  2.00000000000000
  -0.21093750000000  0.04687500000000  -0.30468750000000  2.00000000000000
  -0.20703125000000  0.10156250000000  0.08984375000000  2.00000000000000
  -0.20312500000000  0.15625000000000  0.48437500000000  2.00000000000000
  -0.19921875000000  0.21093750000000  -0.12109375000000  2.00000000000000
  -0.19531250000000  0.26562500000000  0.27343750000000  2.00000000000000
  -0.19140625000000  0.32031250000000  -0.33203125000000  2.00000000000000
  -0.18750000000000  0.37500000000000  0.06250000000000  2.00000000000000
  -0.18359375000000  0.42968750000000  0.45703125000000  2.00000000000000
  -0.17968750000000  0.48437500000000  -0.14843750000000  2.00000000000000
  -0.17578125000000  -0.46093750000000  0.24609375000000  2.00000000000000
  -0.17187500000000  -0.40625000000000  -0.35937500000000  2.00000000000000
  -0.16796875000000  -0.35156250000000  0.03515625000000  2.00000000000000
  -0.16406250000000  -0.29687500000000  0.42968750000000  2.00000000000000
  -0.16015625000000  -0.24218750000000  -0.17578125000000  2.00000000000000
  -0.15625000000000  -0.18750000000000  0.21875000000000  2.00000000000000
  -0.15234375000000  -0.13281250000000  -0.38671875000000  2.00000000000000
  -0.14843750000000  -0.07812500000000  0.00781250000000  2.00000000000000
  -0.14453125000000  -0.02343750000000  0.40234375000000  2.00000000000000
  -0.14062500000000  0.03125000000000  -0.20312500000000  2.00000000000000
  -0.13671875000000  0.08593750000000  0.19140625000000  2.00000000000000
  -0.13281250000000  0.14062500000000  -0.41406250000000  2.00000000000000
  -0.12890625000000  0.19531250000000  -0.01953125000000  2.00000000000000
  -0.12500000000000  0.25000000000000  0.37500000000000  2.00000000000000
  -0.12109375000000  0.30468750000000  -0.23046875000000  2.00000000000000
  -0.11718750000000  0.35937500000000  0.16406250000000  2.00000000000000
  -0.11328125000000  0.41406250000000  -0.44140625000000  2.00000000000000
  -0.10937500000000  0.46875000000000  -0.04687500000000  2.00000000000000
  -0.10546875000000  -0.47656250000000  0.34765625000000  2.00000000000000
  -0.10156250000000  -0.42187500000000  -0.25781250000000  2.00000000000000
  -0.09765625000000  -0.36718750000000  0.13671875000000  2.00000000000000
  -0.09375000000000  -0.31250000000000  -0.46875000000000  2.00000000000000
  -0.08984375000000  -0.25781250000000  -0.07421875000000  2.00000000000000
  -0.08593750000000  -0.20312500000000  0.32031250000000  2.00000000000000
  -0.08203125000000  -0.14843750000000  -0.28515625000000  2.00000000000000
  -0.07812500000000  -0.09375000000000  0.10937500000000  2.00000000000000
  -0.07421875000000  -0.03906250000000  -0.49609375000000  2.00000000000000
  -0.07031250000000  0.01562500000000  -0.10156250000000  2.00000000000000
  -0.06640625000000  0.07031250000000  0.29296875000000  2.00000000000000
  -0.06250000000000  0.12500000000000  -0.31250000000000  2.00000000000000
  -0.05859375000000  0.17968750000000  0.08203125000000  2.00000000000000
  -0.05468750000000  0.23437500000000  0.47656250000000  2.00000000000000
  -0.05078125000000  0.28906250000000  -0.12890625000000  2.00000000000000
  -0.04687500000000  0.34375000000000  0.26562500000000  2.00000000000000
  -0.04296875000000  0.39843750000000  -0.33984375000000  2.00000000000000
  -0.03906250000000  0.45312500000000  0.05468750000000  2.00000000000000
  -0.03515625000000  -0.49218750000000  0.44921875000000  2.00000000000000
  -0.03125000000000  -0.43750000000000  -0.15625000000000  2.00000000000000
  -0.02734375000000  -0.38281250000000  0.23828125000000  2.00000000000000
  -0.02343750000000  -0.32812500000000  -0.36718750000000  2.00000000000000
  -0.01953125000000  -0.27343750000000  0.02734375000000  2.00000000000000
  -0.01562500000000  -0.21875000000000  0.42187500000000  2.00000000000000
  -0.01171875000000  -0.16406250000000  -0.18359375000000  2.00000000000000
  -0.00781250000000  -0.10937500000000  0.21093750000000  2.00000000000000
  -0.00390625000000  -0.05468750000000  -0.39453125000000  2.00000000000000
  0.00000000000000  0.00000000000000  0.00000000000000  2.00000000000000
  0.00390625000000  0.05468750000000  0.39453125000000  2.00000000000000
  0.00781250000000  0.10937500000000  -0.21093750000000  2.00000000000000
  0.01171875000000  0.16406250000000  0.18359375000000  2.00000000000000
  0.01562500000000  0.21875000000000  -0.42187500000000  2.00000000000000
  0.01953125000000  0.27343750000000  -0.02734375000000  2.00000000000000
  0.02343750000000  0.32812500000000  0.36718750000000  2.00000000000000
  0.02734375000000  0.38281250000000  -0.23828125000000  2.00000000000000
  0.03125000000000  0.43750000000000  0.15625000000000  2.00000000000000
  0.03515625000000  0.49218750000000  -0.44921875000000  2.00000000000000
  0.03906250000000  -0.45312500000000  -0.05468750000000  2.00000000000000
  0.04296875000000  -0.39843750000000  0.33984375000000  2.00000000000000
  0.04687500000000  -0.34375000000000  -0.26562500000000  2.00000000000000
  0.05078125000000  -0.28906250000000  0.12890625000000  2.00000000000000
  0.05468750000000  -0.23437500000000  -0.47656250000000  2.00000000000000
  0.05859375000000  -0.17968750000000  -0.08203125000000  2.00000000000000
  0.06250000000000  -0.12500000000000  0.31250000000000  2.00000000000000
  0.06640625000000  -0.07031250000000  -0.29296875000000  2.00000000000000
  0.07031250000000  -0.01562500000000  0.10156250000000  2.00000000000000
  0.07421875000000  0.03906250000000  0.49609375000000  2.00000000000000
  0.07812500000000  0.09375000000000  -0.10937500000000  2.00000000000000
  0.08203125000000  0.14843750000000  0.28515625000000  2.00000000000000
  0.08593750000000  0.20312500000000  -0.32031250000000  2.00000000000000
  0.08984375000000  0.25781250000000  0.07421875000000  2.00000000000000
  0.09375000000000  0.31250000000000  0.46875000000000  2.00000000000000
  0.09765625000000  0.36718750000000  -0.13671875000000  2.00000000000000
  0.10156250000000  0.42187500000000  0.25781250000000  2.00000000000000
  0.10546875000000  0.47656250000000  -0.34765625000000  2.00000000000000
  0.10937500000000  -0.46875000000000  0.04687500000000  2.00000000000000
  0.11328125000000  -0.41406250000000  0.44140625000000  2.00000000000000
  0.11718750000000  -0.35937500000000  -0.16406250000000  2.00000000000000
  0.12109375000000  -0.30468750000000  0.23046875000000  2.00000000000000
  0.12500000000000  -0.25000000000000  -0.37500000000000  2.00000000000000
  0.12890625000000  -0.19531250000000  0.01953125000000  2.00000000000000
  0.13281250000000  -0.14062500000000  0.41406250000000  2.00000000000000
  0.13671875000000  -0.08593750000000  -0.19140625000000  2.00000000000000
  0.14062500000000  -0.03125000000000  0.20312500000000  2.00000000000000
  0.14453125000000  0.02343750000000  -0.40234375000000  2.00000000000000
  0.14843750000000  0.07812500000000  -0.00781250000000  2.00000000000000
  0.15234375000000  0.13281250000000  0.38671875000000  2.00000000000000
  0.15625000000000  0.18750000000000  -0.21875000000000  2.00000000000000
  0.16015625000000  0.24218750000000  0.17578125000000  2.00000000000000
  0.16406250000000  0.29687500000000  -0.42968750000000  2.00000000000000
  0.16796875000000  0.35156250000000  -0.03515625000000  2.00000000000000
  0.17187500000000  0.40625000000000  0.35937500000000  2.00000000000000
  0.17578125000000  0.46093750000000  -0.24609375000000  2.00000000000000
  0.17968750000000  -0.48437500000000  0.14843750000000  2.00000000000000
  0.18359375000000  -0.42968750000000  -0.45703125000000  2.00000000000000
  0.18750000000000  -0.37500000000000  -0.06250000000000  2.00000000000000
  0.19140625000000  -0.32031250000000  0.33203125000000  2.00000000000000
  0.19531250000000  -0.26562500000000  -0.27343750000000  2.00000000000000
  0.19921875000000  -0.21093750000000  0.12109375000000  2.00000000000000
  0.20312500000000  -0.15625000000000  -0.48437500000000  2.00000000000000
  0.20703125000000  -0.10156250000000  -0.08984375000000  2.00000000000000
  0.21093750000000  -0.04687500000000  0.30468750000000  2.00000000000000
  0.21484375000000  0.00781250000000  -0.30078125000000  2.00000000000000
  0.21875000000000  0.06250000000000  0.09375000000000  2.00000000000000
  0.22265625000000  0.11718750000000  0.48828125000000  2.00000000000000
  0.22656250000000  0.17187500000000  -0.11718750000000  2.00000000000000
  0.23046875000000  0.22656250000000  0.27734375000000  2.00000000000000
  0.23437500000000  0.28125000000000  -0.32812500000000  2.00000000000000
  0.23828125000000  0.33593750000000  0.06640625000000  2.00000000000000
  0.24218750000000  0.39062500000000  0.46093750000000  2.00000000000000
  0.24609375000000  0.44531250000000  -0.14453125000000  2.00000000000000
  0.25000000000000  0.50000000000000  0.25000000000000  2.00000000000000
  0.25390625000000  -0.44531250000000  -0.35546875000000  2.00000000000000
  0.25781250000000  -0.39062500000000  0.03906250000000  2.00000000000000
  0.26171875000000  -0.33593750000000  0.43359375000000  2.00000000000000
  0.26562500000000  -0.28125000000000  -0.17187500000000  2.00000000000000
  0.26953125000000  -0.22656250000000  0.22265625000000  2.00000000000000
  0.27343750000000  -0.17187500000000  -0.38281250000000  2.00000000000000
  0.27734375000000  -0.11718750000000  0.01171875000000  2.00000000000000
  0.28125000000000  -0.06250000000000  0.40625000000000  2.00000000000000
  0.28515625000000  -0.00781250000000  -0.19921875000000  2.00000000000000
  0.28906250000000  0.04687500000000  0.19531250000000  2.00000000000000
  0.29296875000000  0.10156250000000  -0.41015625000000  2.00000000000000
  0.29687500000000  0.15625000000000  -0.01562500000000  2.00000000000000
  0.30078125000000  0.21093750000000  0.37890625000000  2.00000000000000
  0.30468750000000  0.26562500000000  -0.22656250000000  2.00000000000000
  0.30859375000000  0.32031250000000  0.16796875000000  2.00000000000000
  0.31250000000000  0.37500000000000  -0.43750000000000  2.00000000000000
  0.31640625000000  0.42968750000000  -0.04296875000000  2.00000000000000
  0.32031250000000  0.48437500000000  0.35156250000000  2.00000000000000
  0.32421875000000  -0.46093750000000  -0.25390625000000  2.00000000000000
  0.32812500000000  -0.40625000000000  0.14062500000000  2.00000000000000
  0.33203125000000  -0.35156250000000  -0.46484375000000  2.00000000000000
  0.33593750000000  -0.29687500000000  -0.07031250000000  2.00000000000000
  0.33984375000000  -0.24218750000000  0.32421875000000  2.00000000000000
  0.34375000000000  -0.18750000000000  -0.28125000000000  2.00000000000000
  0.34765625000000  -0.13281250000000  0.11328125000000  2.00000000000000
  0.35156250000000  -0.07812500000000  -0.49218750000000  2.00000000000000
  0.35546875000000  -0.02343750000000  -0.09765625000000  2.00000000000000
  0.35937500000000  0.03125000000000  0.29687500000000  2.00000000000000
  0.36328125000000  0.08593750000000  -0.30859375000000  2.00000000000000
  0.36718750000000  0.14062500000000  0.08593750000000  2.00000000000000
  0.37109375000000  0.19531250000000  0.48046875000000  2.00000000000000
  0.37500000000000  0.25000000000000  -0.12500000000000  2.00000000000000
  0.37890625000000  0.30468750000000  0.26953125000000  2.00000000000000
  0.38281250000000  0.35937500000000  -0.33593750000000  2.00000000000000
  0.38671875000000  0.41406250000000  0.05859375000000  2.00000000000000
  0.39062500000000  0.46875000000000  0.45312500000000  2.00000000000000
  0.39453125000000  -0.47656250000000  -0.15234375000000  2.00000000000000
  0.39843750000000  -0.42187500000000  0.24218750000000  2.00000000000000
  0.40234375000000  -0.36718750000000  -0.36328125000000  2.00000000000000
  0.40625000000000  -0.31250000000000  0.03125000000000  2.00000000000000
  0.41015625000000  -0.25781250000000  0.42578125000000  2.00000000000000
  0.41406250000000  -0.20312500000000  -0.17968750000000  2.00000000000000
  0.41796875000000  -0.14843750000000  0.21484375000000  2.00000000000000
  0.42187500000000  -0.09375000000000  -0.39062500000000  2.00000000000000
  0.42578125000000  -0.03906250000000  0.00390625000000  2.00000000000000
  0.42968750000000  0.01562500000000  0.39843750000000  2.00000000000000
  0.43359375000000  0.07031250000000  -0.20703125000000  2.00000000000000
  0.43750000000000  0.12500000000000  0.18750000000000  2.00000000000000
  0.44140625000000  0.17968750000000  -0.41796875000000  2.00000000000000
  0.44531250000000  0.23437500000000  -0.02343750000000  2.00000000000000
  0.44921875000000  0.28906250000000  0.37109375000000  2.00000000000000
  0.45312500000000  0.34375000000000  -0.23437500000000  2.00000000000000
  0.45703125000000  0.39843750000000  0.16015625000000  2.00000000000000
  0.46093750000000  0.45312500000000  -0.44531250000000  2.00000000000000
  0.46484375000000  -0.49218750000000  -0.05078125000000  2.00000000000000
  0.46875000000000  -0.43750000000000  0.34375000000000  2.00000000000000
  0.47265625000000  -0.38281250000000  -0.26171875000000  2.00000000000000
  0.47656250000000  -0.32812500000000  0.13281250000000  2.00000000000000
  0.48046875000000  -0.27343750000000  -0.47265625000000  2.00000000000000
  0.48437500000000  -0.21875000000000  -0.07812500000000  2.00000000000000
  0.48828125000000  -0.16406250000000  0.31640625000000  2.00000000000000
  0.49218750000000  -0.10937500000000  -0.28906250000000  2.00000000000000
  0.49609375000000  -0.05468750000000  0.10546875000000  2.00000000000000
  0.50000000000000  0.00000000000000  0.50000000000000  2.00000000000000
