&inputpp
   outdir='./out'
   prefix='NiO-fcc'
   write_psir=.false.
/
