 &control
    calculation = 'scf'
    restart_mode='from_scratch',
    prefix='NiO-fcc',
    tstress = .true.
    tprnfor = .true.
    pseudo_dir = 'pw_pseudo/',
    outdir='./out',
    verbosity = 'high'
 /
 &system
    ibrav=0,
    
    nat=1024,
    ntyp      = 3,
    ecutwfc=1,
    lda_plus_u = .true.,
    Hubbard_U(2) = 6.5,
    Hubbard_U(3) = 6.5,
    occupations='smearing',
    smearing='mv', degauss=0.002,
    nspin=2, 
    starting_magnetization(2)= 1.0,
    starting_magnetization(3)=-1.0,
 /
 &electrons
    mixing_beta = 0.7
    conv_thr =  1.0d-10
 /
CELL_PARAMETERS
7.8811  39.4055  1.77635683940025e-15
0  7.8811  -39.4055
-39.4055  3.94055  3.94055
0.50 0.00 -0.50
ATOMIC_SPECIES
 O    1.  O.ncpp
 Ni   1.  Ni.opt.upf
 Ni1  1.  Ni.opt.upf
ATOMIC_POSITIONS crystal
O   0.06640625  0.111328125  0.11328125
O   0.05859375  0.201171875  0.01171875
O   0.00390625000000001  0.330078125  0.30078125
O   0.07421875  0.021484375  0.21484375
O   0.15234375  0.123046875  0.23046875
O   0.14453125  0.212890625  0.12890625
O   0.13671875  0.302734375  0.02734375
O   0.29296875  0.00585937500000003  0.05859375
O   0.01171875  0.240234375  0.40234375
O   0.08984375  0.341796875  0.41796875
O   0.08203125  0.431640625  0.31640625
O   0.07421875  0.521484375  0.21484375
O   0.06640625  0.611328125  0.11328125
O   0.05859375  0.701171875  0.01171875
O   0.16015625  0.0332031250000001  0.33203125
O   0.23828125  0.134765625  0.34765625
O   0.23046875  0.224609375  0.24609375
O   0.22265625  0.314453125  0.14453125
O   0.21484375  0.404296875  0.04296875
O   0.37890625  0.017578125  0.17578125
O   0.37109375  0.107421875  0.07421875
O   0.02734375  0.560546875  0.60546875
O   0.01953125  0.650390625  0.50390625
O   0.01171875  0.740234375  0.40234375
O   0.00390625000000003  0.830078125  0.30078125
O   0.01953125  0.150390625  0.50390625
O   0.09765625  0.251953125  0.51953125
O   0.17578125  0.353515625  0.53515625
O   0.16796875  0.443359375  0.43359375
O   0.16015625  0.533203125  0.33203125
O   0.15234375  0.623046875  0.23046875
O   0.14453125  0.712890625  0.12890625
O   0.13671875  0.802734375  0.02734375
O   0.24609375  0.044921875  0.44921875
O   0.32421875  0.146484375  0.46484375
O   0.31640625  0.236328125  0.36328125
O   0.30859375  0.326171875  0.26171875
O   0.30078125  0.416015625  0.16015625
O   0.29296875  0.505859375  0.05859375
O   0.46484375  0.0292968750000001  0.29296875
O   0.45703125  0.119140625  0.19140625
O   0.44921875  0.208984375  0.08984375
O   0.59765625  0.00195312500000006  0.01953125
O   0.03515625  0.470703125  0.70703125
O   0.11328125  0.572265625  0.72265625
O   0.10546875  0.662109375  0.62109375
O   0.09765625  0.751953125  0.51953125
O   0.08984375  0.841796875  0.41796875
O   0.08203125  0.931640625  0.31640625
O   0.02734375  0.060546875  0.60546875
O   0.10546875  0.162109375  0.62109375
O   0.18359375  0.263671875  0.63671875
O   0.26171875  0.365234375  0.65234375
O   0.25390625  0.455078125  0.55078125
O   0.24609375  0.544921875  0.44921875
O   0.23828125  0.634765625  0.34765625
O   0.23046875  0.724609375  0.24609375
O   0.22265625  0.814453125  0.14453125
O   0.21484375  0.904296875  0.04296875
O   0.33203125  0.056640625  0.56640625
O   0.41015625  0.158203125  0.58203125
O   0.40234375  0.248046875  0.48046875
O   0.39453125  0.337890625  0.37890625
O   0.38671875  0.427734375  0.27734375
O   0.37890625  0.517578125  0.17578125
O   0.37109375  0.607421875  0.07421875
O   0.55078125  0.041015625  0.41015625
O   0.54296875  0.130859375  0.30859375
O   0.53515625  0.220703125  0.20703125
O   0.52734375  0.310546875  0.10546875
O   0.51953125  0.400390625  0.00390625
O   0.68359375  0.013671875  0.13671875
O   0.67578125  0.103515625  0.03515625
O   0.0507812500000001  0.791015625  0.91015625
O   0.0429687500000001  0.880859375  0.80859375
O   0.0351562500000001  0.970703125  0.70703125
O   0.04296875  0.380859375  0.80859375
O   0.12109375  0.482421875  0.82421875
O   0.19921875  0.583984375  0.83984375
O   0.19140625  0.673828125  0.73828125
O   0.18359375  0.763671875  0.63671875
O   0.17578125  0.853515625  0.53515625
O   0.16796875  0.943359375  0.43359375
O   0.11328125  0.0722656250000001  0.72265625
O   0.19140625  0.173828125  0.73828125
O   0.26953125  0.275390625  0.75390625
O   0.34765625  0.376953125  0.76953125
O   0.33984375  0.466796875  0.66796875
O   0.33203125  0.556640625  0.56640625
O   0.32421875  0.646484375  0.46484375
O   0.31640625  0.736328125  0.36328125
O   0.30859375  0.826171875  0.26171875
O   0.30078125  0.916015625  0.16015625
O   0.41796875  0.068359375  0.68359375
O   0.49609375  0.169921875  0.69921875
O   0.48828125  0.259765625  0.59765625
O   0.48046875  0.349609375  0.49609375
O   0.47265625  0.439453125  0.39453125
O   0.46484375  0.529296875  0.29296875
O   0.45703125  0.619140625  0.19140625
O   0.44921875  0.708984375  0.08984375
O   0.63671875  0.0527343750000001  0.52734375
O   0.62890625  0.142578125  0.42578125
O   0.62109375  0.232421875  0.32421875
O   0.61328125  0.322265625  0.22265625
O   0.60546875  0.412109375  0.12109375
O   0.59765625  0.501953125  0.01953125
O   0.76953125  0.0253906250000001  0.25390625
O   0.76171875  0.115234375  0.15234375
O   0.75390625  0.205078125  0.05078125
O   0.12890625  0.892578125  0.92578125
O   0.12109375  0.982421875  0.82421875
O   0.05078125  0.291015625  0.91015625
O   0.12890625  0.392578125  0.92578125
O   0.20703125  0.494140625  0.94140625
O   0.28515625  0.595703125  0.95703125
O   0.27734375  0.685546875  0.85546875
O   0.26953125  0.775390625  0.75390625
O   0.26171875  0.865234375  0.65234375
O   0.25390625  0.955078125  0.55078125
O   0.19921875  0.083984375  0.83984375
O   0.27734375  0.185546875  0.85546875
O   0.35546875  0.287109375  0.87109375
O   0.43359375  0.388671875  0.88671875
O   0.42578125  0.478515625  0.78515625
O   0.41796875  0.568359375  0.68359375
O   0.41015625  0.658203125  0.58203125
O   0.40234375  0.748046875  0.48046875
O   0.39453125  0.837890625  0.37890625
O   0.38671875  0.927734375  0.27734375
O   0.50390625  0.0800781250000001  0.80078125
O   0.58203125  0.181640625  0.81640625
O   0.57421875  0.271484375  0.71484375
O   0.56640625  0.361328125  0.61328125
O   0.55859375  0.451171875  0.51171875
O   0.55078125  0.541015625  0.41015625
O   0.54296875  0.630859375  0.30859375
O   0.53515625  0.720703125  0.20703125
O   0.52734375  0.810546875  0.10546875
O   0.51953125  0.900390625  0.00390624999999999
O   0.72265625  0.0644531250000001  0.64453125
O   0.71484375  0.154296875  0.54296875
O   0.70703125  0.244140625  0.44140625
O   0.69921875  0.333984375  0.33984375
O   0.69140625  0.423828125  0.23828125
O   0.68359375  0.513671875  0.13671875
O   0.67578125  0.603515625  0.03515625
O   0.85546875  0.0371093750000001  0.37109375
O   0.84765625  0.126953125  0.26953125
O   0.83984375  0.216796875  0.16796875
O   0.83203125  0.306640625  0.06640625
O   0.98828125  0.00976562500000005  0.09765625
O   0.20703125  0.994140625  0.94140625
O   0.36328125  0.697265625  0.97265625
O   0.35546875  0.787109375  0.87109375
O   0.34765625  0.876953125  0.76953125
O   0.33984375  0.966796875  0.66796875
O   0.28515625  0.095703125  0.95703125
O   0.36328125  0.197265625  0.97265625
O   0.44140625  0.298828125  0.98828125
O   0.51171875  0.490234375  0.90234375
O   0.50390625  0.580078125  0.80078125
O   0.49609375  0.669921875  0.69921875
O   0.48828125  0.759765625  0.59765625
O   0.48046875  0.849609375  0.49609375
O   0.47265625  0.939453125  0.39453125
O   0.58984375  0.0917968750000001  0.91796875
O   0.66796875  0.193359375  0.93359375
O   0.66015625  0.283203125  0.83203125
O   0.65234375  0.373046875  0.73046875
O   0.64453125  0.462890625  0.62890625
O   0.63671875  0.552734375  0.52734375
O   0.62890625  0.642578125  0.42578125
O   0.62109375  0.732421875  0.32421875
O   0.61328125  0.822265625  0.22265625
O   0.60546875  0.912109375  0.12109375
O   0.80859375  0.0761718750000001  0.76171875
O   0.80078125  0.166015625  0.66015625
O   0.79296875  0.255859375  0.55859375
O   0.78515625  0.345703125  0.45703125
O   0.77734375  0.435546875  0.35546875
O   0.76953125  0.525390625  0.25390625
O   0.76171875  0.615234375  0.15234375
O   0.75390625  0.705078125  0.05078125
O   0.94140625  0.0488281250000001  0.48828125
O   0.93359375  0.138671875  0.38671875
O   0.92578125  0.228515625  0.28515625
O   0.91796875  0.318359375  0.18359375
O   0.91015625  0.408203125  0.08203125
O   0.44140625  0.798828125  0.98828125
O   0.43359375  0.888671875  0.88671875
O   0.42578125  0.978515625  0.78515625
O   0.58984375  0.591796875  0.91796875
O   0.58203125  0.681640625  0.81640625
O   0.57421875  0.771484375  0.71484375
O   0.56640625  0.861328125  0.61328125
O   0.55859375  0.951171875  0.51171875
O   0.74609375  0.294921875  0.94921875
O   0.73828125  0.384765625  0.84765625
O   0.73046875  0.474609375  0.74609375
O   0.72265625  0.564453125  0.64453125
O   0.71484375  0.654296875  0.54296875
O   0.70703125  0.744140625  0.44140625
O   0.69921875  0.833984375  0.33984375
O   0.69140625  0.923828125  0.23828125
O   0.89453125  0.0878906250000002  0.87890625
O   0.88671875  0.177734375  0.77734375
O   0.87890625  0.267578125  0.67578125
O   0.87109375  0.357421875  0.57421875
O   0.86328125  0.447265625  0.47265625
O   0.85546875  0.537109375  0.37109375
O   0.84765625  0.626953125  0.26953125
O   0.83984375  0.716796875  0.16796875
O   0.83203125  0.806640625  0.06640625
O   0.99609375  0.419921875  0.19921875
O   0.98828125  0.509765625  0.09765625
O   0.51171875  0.990234375  0.90234375
O   0.66796875  0.693359375  0.93359375
O   0.66015625  0.783203125  0.83203125
O   0.65234375  0.873046875  0.73046875
O   0.64453125  0.962890625  0.62890625
O   0.82421875  0.396484375  0.96484375
O   0.81640625  0.486328125  0.86328125
O   0.80859375  0.576171875  0.76171875
O   0.80078125  0.666015625  0.66015625
O   0.79296875  0.755859375  0.55859375
O   0.78515625  0.845703125  0.45703125
O   0.77734375  0.935546875  0.35546875
O   0.98046875  0.0996093749999999  0.99609375
O   0.97265625  0.189453125  0.89453125
O   0.96484375  0.279296875  0.79296875
O   0.95703125  0.369140625  0.69140625
O   0.94921875  0.458984375  0.58984375
O   0.94140625  0.548828125  0.48828125
O   0.93359375  0.638671875  0.38671875
O   0.92578125  0.728515625  0.28515625
O   0.91796875  0.818359375  0.18359375
O   0.91015625  0.908203125  0.08203125
O   0.74609375  0.794921875  0.94921875
O   0.73828125  0.884765625  0.84765625
O   0.73046875  0.974609375  0.74609375
O   0.90234375  0.498046875  0.98046875
O   0.89453125  0.587890625  0.87890625
O   0.88671875  0.677734375  0.77734375
O   0.87890625  0.767578125  0.67578125
O   0.87109375  0.857421875  0.57421875
O   0.86328125  0.947265625  0.47265625
O   0.99609375  0.919921875  0.19921875
O   0.82421875  0.896484375  0.96484375
O   0.81640625  0.986328125  0.86328125
O   0.98046875  0.599609375  0.99609375
O   0.97265625  0.689453125  0.89453125
O   0.96484375  0.779296875  0.79296875
O   0.95703125  0.869140625  0.69140625
O   0.94921875  0.958984375  0.58984375
O   0.90234375  0.998046875  0.98046875
O   0.02734375  0.310546875  0.10546875
O   0.01953125  0.400390625  0.00390625
O   0.09765625  0.00195312500000001  0.01953125
O   0.17578125  0.103515625  0.03515625
O   0.03515625  0.220703125  0.20703125
O   0.11328125  0.322265625  0.22265625
O   0.10546875  0.412109375  0.12109375
O   0.09765625  0.501953125  0.01953125
O   0.18359375  0.013671875  0.13671875
O   0.26171875  0.115234375  0.15234375
O   0.25390625  0.205078125  0.05078125
O   0.05078125  0.541015625  0.41015625
O   0.04296875  0.630859375  0.30859375
O   0.03515625  0.720703125  0.20703125
O   0.02734375  0.810546875  0.10546875
O   0.01953125  0.900390625  0.00390625
O   0.04296875  0.130859375  0.30859375
O   0.12109375  0.232421875  0.32421875
O   0.19921875  0.333984375  0.33984375
O   0.19140625  0.423828125  0.23828125
O   0.18359375  0.513671875  0.13671875
O   0.17578125  0.603515625  0.03515625
O   0.26953125  0.025390625  0.25390625
O   0.34765625  0.126953125  0.26953125
O   0.33984375  0.216796875  0.16796875
O   0.33203125  0.306640625  0.06640625
O   0.48828125  0.00976562499999998  0.09765625
O   0.05859375  0.451171875  0.51171875
O   0.13671875  0.552734375  0.52734375
O   0.12890625  0.642578125  0.42578125
O   0.12109375  0.732421875  0.32421875
O   0.11328125  0.822265625  0.22265625
O   0.10546875  0.912109375  0.12109375
O   0.05078125  0.041015625  0.41015625
O   0.12890625  0.142578125  0.42578125
O   0.20703125  0.244140625  0.44140625
O   0.28515625  0.345703125  0.45703125
O   0.27734375  0.435546875  0.35546875
O   0.26953125  0.525390625  0.25390625
O   0.26171875  0.615234375  0.15234375
O   0.25390625  0.705078125  0.05078125
O   0.35546875  0.037109375  0.37109375
O   0.43359375  0.138671875  0.38671875
O   0.42578125  0.228515625  0.28515625
O   0.41796875  0.318359375  0.18359375
O   0.41015625  0.408203125  0.08203125
O   0.57421875  0.021484375  0.21484375
O   0.56640625  0.111328125  0.11328125
O   0.55859375  0.201171875  0.01171875
O   0.0742187500000001  0.771484375  0.71484375
O   0.0664062500000001  0.861328125  0.61328125
O   0.0585937500000001  0.951171875  0.51171875
O   0.06640625  0.361328125  0.61328125
O   0.14453125  0.462890625  0.62890625
O   0.22265625  0.564453125  0.64453125
O   0.21484375  0.654296875  0.54296875
O   0.20703125  0.744140625  0.44140625
O   0.19921875  0.833984375  0.33984375
O   0.19140625  0.923828125  0.23828125
O   0.13671875  0.052734375  0.52734375
O   0.21484375  0.154296875  0.54296875
O   0.29296875  0.255859375  0.55859375
O   0.37109375  0.357421875  0.57421875
O   0.36328125  0.447265625  0.47265625
O   0.35546875  0.537109375  0.37109375
O   0.34765625  0.626953125  0.26953125
O   0.33984375  0.716796875  0.16796875
O   0.33203125  0.806640625  0.06640625
O   0.44140625  0.048828125  0.48828125
O   0.51953125  0.150390625  0.50390625
O   0.51171875  0.240234375  0.40234375
O   0.50390625  0.330078125  0.30078125
O   0.49609375  0.419921875  0.19921875
O   0.48828125  0.509765625  0.09765625
O   0.66015625  0.033203125  0.33203125
O   0.65234375  0.123046875  0.23046875
O   0.64453125  0.212890625  0.12890625
O   0.63671875  0.302734375  0.02734375
O   0.79296875  0.00585937499999999  0.05859375
O   0.0117187500000001  0.990234375  0.90234375
O   0.0039062500000001  0.580078125  0.80078125
O   0.0820312500000001  0.681640625  0.81640625
O   0.16015625  0.783203125  0.83203125
O   0.15234375  0.873046875  0.73046875
O   0.14453125  0.962890625  0.62890625
O   0.07421875  0.271484375  0.71484375
O   0.15234375  0.373046875  0.73046875
O   0.23046875  0.474609375  0.74609375
O   0.30859375  0.576171875  0.76171875
O   0.30078125  0.666015625  0.66015625
O   0.29296875  0.755859375  0.55859375
O   0.28515625  0.845703125  0.45703125
O   0.27734375  0.935546875  0.35546875
O   0.22265625  0.064453125  0.64453125
O   0.30078125  0.166015625  0.66015625
O   0.37890625  0.267578125  0.67578125
O   0.45703125  0.369140625  0.69140625
O   0.44921875  0.458984375  0.58984375
O   0.44140625  0.548828125  0.48828125
O   0.43359375  0.638671875  0.38671875
O   0.42578125  0.728515625  0.28515625
O   0.41796875  0.818359375  0.18359375
O   0.41015625  0.908203125  0.08203125
O   0.52734375  0.060546875  0.60546875
O   0.60546875  0.162109375  0.62109375
O   0.59765625  0.251953125  0.51953125
O   0.58984375  0.341796875  0.41796875
O   0.58203125  0.431640625  0.31640625
O   0.57421875  0.521484375  0.21484375
O   0.56640625  0.611328125  0.11328125
O   0.55859375  0.701171875  0.01171875
O   0.74609375  0.0449218750000001  0.44921875
O   0.73828125  0.134765625  0.34765625
O   0.73046875  0.224609375  0.24609375
O   0.72265625  0.314453125  0.14453125
O   0.71484375  0.404296875  0.04296875
O   0.87890625  0.017578125  0.17578125
O   0.87109375  0.107421875  0.07421875
O   0.0117187500000001  0.490234375  0.90234375
O   0.0898437500000001  0.591796875  0.91796875
O   0.16796875  0.693359375  0.93359375
O   0.24609375  0.794921875  0.94921875
O   0.23828125  0.884765625  0.84765625
O   0.23046875  0.974609375  0.74609375
O   0.00390625000000003  0.0800781249999999  0.80078125
O   0.08203125  0.181640625  0.81640625
O   0.16015625  0.283203125  0.83203125
O   0.23828125  0.384765625  0.84765625
O   0.31640625  0.486328125  0.86328125
O   0.39453125  0.587890625  0.87890625
O   0.38671875  0.677734375  0.77734375
O   0.37890625  0.767578125  0.67578125
O   0.37109375  0.857421875  0.57421875
O   0.36328125  0.947265625  0.47265625
O   0.30859375  0.0761718750000001  0.76171875
O   0.38671875  0.177734375  0.77734375
O   0.46484375  0.279296875  0.79296875
O   0.54296875  0.380859375  0.80859375
O   0.53515625  0.470703125  0.70703125
O   0.52734375  0.560546875  0.60546875
O   0.51953125  0.650390625  0.50390625
O   0.51171875  0.740234375  0.40234375
O   0.50390625  0.830078125  0.30078125
O   0.49609375  0.919921875  0.19921875
O   0.61328125  0.0722656250000001  0.72265625
O   0.69140625  0.173828125  0.73828125
O   0.68359375  0.263671875  0.63671875
O   0.67578125  0.353515625  0.53515625
O   0.66796875  0.443359375  0.43359375
O   0.66015625  0.533203125  0.33203125
O   0.65234375  0.623046875  0.23046875
O   0.64453125  0.712890625  0.12890625
O   0.63671875  0.802734375  0.02734375
O   0.83203125  0.0566406250000001  0.56640625
O   0.82421875  0.146484375  0.46484375
O   0.81640625  0.236328125  0.36328125
O   0.80859375  0.326171875  0.26171875
O   0.80078125  0.416015625  0.16015625
O   0.79296875  0.505859375  0.05859375
O   0.96484375  0.029296875  0.29296875
O   0.95703125  0.119140625  0.19140625
O   0.94921875  0.208984375  0.08984375
O   0.32421875  0.896484375  0.96484375
O   0.31640625  0.986328125  0.86328125
O   0.08984375  0.091796875  0.91796875
O   0.16796875  0.193359375  0.93359375
O   0.24609375  0.294921875  0.94921875
O   0.32421875  0.396484375  0.96484375
O   0.40234375  0.498046875  0.98046875
O   0.48046875  0.599609375  0.99609375
O   0.47265625  0.689453125  0.89453125
O   0.46484375  0.779296875  0.79296875
O   0.45703125  0.869140625  0.69140625
O   0.44921875  0.958984375  0.58984375
O   0.39453125  0.0878906250000001  0.87890625
O   0.47265625  0.189453125  0.89453125
O   0.55078125  0.291015625  0.91015625
O   0.62890625  0.392578125  0.92578125
O   0.62109375  0.482421875  0.82421875
O   0.61328125  0.572265625  0.72265625
O   0.60546875  0.662109375  0.62109375
O   0.59765625  0.751953125  0.51953125
O   0.58984375  0.841796875  0.41796875
O   0.58203125  0.931640625  0.31640625
O   0.69921875  0.0839843750000001  0.83984375
O   0.77734375  0.185546875  0.85546875
O   0.76953125  0.275390625  0.75390625
O   0.76171875  0.365234375  0.65234375
O   0.75390625  0.455078125  0.55078125
O   0.74609375  0.544921875  0.44921875
O   0.73828125  0.634765625  0.34765625
O   0.73046875  0.724609375  0.24609375
O   0.72265625  0.814453125  0.14453125
O   0.71484375  0.904296875  0.04296875
O   0.91796875  0.0683593750000001  0.68359375
O   0.91015625  0.158203125  0.58203125
O   0.90234375  0.248046875  0.48046875
O   0.89453125  0.337890625  0.37890625
O   0.88671875  0.427734375  0.27734375
O   0.87890625  0.517578125  0.17578125
O   0.87109375  0.607421875  0.07421875
O   0.40234375  0.998046875  0.98046875
O   0.55078125  0.791015625  0.91015625
O   0.54296875  0.880859375  0.80859375
O   0.53515625  0.970703125  0.70703125
O   0.48046875  0.0996093750000001  0.99609375
O   0.70703125  0.494140625  0.94140625
O   0.69921875  0.583984375  0.83984375
O   0.69140625  0.673828125  0.73828125
O   0.68359375  0.763671875  0.63671875
O   0.67578125  0.853515625  0.53515625
O   0.66796875  0.943359375  0.43359375
O   0.78515625  0.0957031250000001  0.95703125
O   0.86328125  0.197265625  0.97265625
O   0.85546875  0.287109375  0.87109375
O   0.84765625  0.376953125  0.76953125
O   0.83984375  0.466796875  0.66796875
O   0.83203125  0.556640625  0.56640625
O   0.82421875  0.646484375  0.46484375
O   0.81640625  0.736328125  0.36328125
O   0.80859375  0.826171875  0.26171875
O   0.80078125  0.916015625  0.16015625
O   0.99609375  0.169921875  0.69921875
O   0.98828125  0.259765625  0.59765625
O   0.98046875  0.349609375  0.49609375
O   0.97265625  0.439453125  0.39453125
O   0.96484375  0.529296875  0.29296875
O   0.95703125  0.619140625  0.19140625
O   0.94921875  0.708984375  0.08984375
O   0.62890625  0.892578125  0.92578125
O   0.62109375  0.982421875  0.82421875
O   0.78515625  0.595703125  0.95703125
O   0.77734375  0.685546875  0.85546875
O   0.76953125  0.775390625  0.75390625
O   0.76171875  0.865234375  0.65234375
O   0.75390625  0.955078125  0.55078125
O   0.94140625  0.298828125  0.98828125
O   0.93359375  0.388671875  0.88671875
O   0.92578125  0.478515625  0.78515625
O   0.91796875  0.568359375  0.68359375
O   0.91015625  0.658203125  0.58203125
O   0.90234375  0.748046875  0.48046875
O   0.89453125  0.837890625  0.37890625
O   0.88671875  0.927734375  0.27734375
O   0.70703125  0.994140625  0.94140625
O   0.86328125  0.697265625  0.97265625
O   0.85546875  0.787109375  0.87109375
O   0.84765625  0.876953125  0.76953125
O   0.83984375  0.966796875  0.66796875
O   0.99609375  0.669921875  0.69921875
O   0.98828125  0.759765625  0.59765625
O   0.98046875  0.849609375  0.49609375
O   0.97265625  0.939453125  0.39453125
O   0.94140625  0.798828125  0.98828125
O   0.93359375  0.888671875  0.88671875
O   0.92578125  0.978515625  0.78515625
Ni   0  0  0
Ni   0.0859375  0.01171875  0.1171875
Ni   0.078125  0.1015625  0.015625
Ni   0.0234375  0.23046875  0.3046875
Ni   0.015625  0.3203125  0.203125
Ni   0.00781250000000001  0.41015625  0.1015625
Ni   0  0.5  0
Ni   0.171875  0.0234375  0.234375
Ni   0.1640625  0.11328125  0.1328125
Ni   0.15625  0.203125  0.03125
Ni   0.03125  0.140625  0.40625
Ni   0.109375  0.2421875  0.421875
Ni   0.1015625  0.33203125  0.3203125
Ni   0.09375  0.421875  0.21875
Ni   0.0859375  0.51171875  0.1171875
Ni   0.078125  0.6015625  0.015625
Ni   0.2578125  0.03515625  0.3515625
Ni   0.25  0.125  0.25
Ni   0.2421875  0.21484375  0.1484375
Ni   0.234375  0.3046875  0.046875
Ni   0.390625  0.00781250000000002  0.078125
Ni   0.046875  0.4609375  0.609375
Ni   0.0390625  0.55078125  0.5078125
Ni   0.03125  0.640625  0.40625
Ni   0.0234375  0.73046875  0.3046875
Ni   0.015625  0.8203125  0.203125
Ni   0.00781250000000003  0.91015625  0.1015625
Ni   0.0390625  0.05078125  0.5078125
Ni   0.1171875  0.15234375  0.5234375
Ni   0.1953125  0.25390625  0.5390625
Ni   0.1875  0.34375  0.4375
Ni   0.1796875  0.43359375  0.3359375
Ni   0.171875  0.5234375  0.234375
Ni   0.1640625  0.61328125  0.1328125
Ni   0.15625  0.703125  0.03125
Ni   0.34375  0.046875  0.46875
Ni   0.3359375  0.13671875  0.3671875
Ni   0.328125  0.2265625  0.265625
Ni   0.3203125  0.31640625  0.1640625
Ni   0.3125  0.40625  0.0625
Ni   0.4765625  0.01953125  0.1953125
Ni   0.46875  0.109375  0.09375
Ni   0.0546875  0.37109375  0.7109375
Ni   0.1328125  0.47265625  0.7265625
Ni   0.125  0.5625  0.625
Ni   0.1171875  0.65234375  0.5234375
Ni   0.109375  0.7421875  0.421875
Ni   0.1015625  0.83203125  0.3203125
Ni   0.0937500000000001  0.921875  0.21875
Ni   0.125  0.0625  0.625
Ni   0.203125  0.1640625  0.640625
Ni   0.28125  0.265625  0.65625
Ni   0.2734375  0.35546875  0.5546875
Ni   0.265625  0.4453125  0.453125
Ni   0.2578125  0.53515625  0.3515625
Ni   0.25  0.625  0.25
Ni   0.2421875  0.71484375  0.1484375
Ni   0.234375  0.8046875  0.046875
Ni   0.4296875  0.05859375  0.5859375
Ni   0.421875  0.1484375  0.484375
Ni   0.4140625  0.23828125  0.3828125
Ni   0.40625  0.328125  0.28125
Ni   0.3984375  0.41796875  0.1796875
Ni   0.390625  0.5078125  0.078125
Ni   0.5625  0.0312500000000001  0.3125
Ni   0.5546875  0.12109375  0.2109375
Ni   0.546875  0.2109375  0.109375
Ni   0.5390625  0.30078125  0.00781250000000001
Ni   0.6953125  0.00390625000000008  0.0390625
Ni   0.0703125000000001  0.69140625  0.9140625
Ni   0.0625000000000001  0.78125  0.8125
Ni   0.0546875000000001  0.87109375  0.7109375
Ni   0.0468750000000001  0.9609375  0.609375
Ni   0.0625  0.28125  0.8125
Ni   0.140625  0.3828125  0.828125
Ni   0.21875  0.484375  0.84375
Ni   0.2109375  0.57421875  0.7421875
Ni   0.203125  0.6640625  0.640625
Ni   0.1953125  0.75390625  0.5390625
Ni   0.1875  0.84375  0.4375
Ni   0.1796875  0.93359375  0.3359375
Ni   0.2109375  0.07421875  0.7421875
Ni   0.2890625  0.17578125  0.7578125
Ni   0.3671875  0.27734375  0.7734375
Ni   0.359375  0.3671875  0.671875
Ni   0.3515625  0.45703125  0.5703125
Ni   0.34375  0.546875  0.46875
Ni   0.3359375  0.63671875  0.3671875
Ni   0.328125  0.7265625  0.265625
Ni   0.3203125  0.81640625  0.1640625
Ni   0.3125  0.90625  0.0625
Ni   0.515625  0.0703125000000001  0.703125
Ni   0.5078125  0.16015625  0.6015625
Ni   0.5  0.25  0.5
Ni   0.4921875  0.33984375  0.3984375
Ni   0.484375  0.4296875  0.296875
Ni   0.4765625  0.51953125  0.1953125
Ni   0.46875  0.609375  0.09375
Ni   0.6484375  0.04296875  0.4296875
Ni   0.640625  0.1328125  0.328125
Ni   0.6328125  0.22265625  0.2265625
Ni   0.625  0.3125  0.125
Ni   0.6171875  0.40234375  0.0234375
Ni   0.78125  0.015625  0.15625
Ni   0.7734375  0.10546875  0.0546875
Ni   0.1484375  0.79296875  0.9296875
Ni   0.140625  0.8828125  0.828125
Ni   0.1328125  0.97265625  0.7265625
Ni   0.0703125  0.19140625  0.9140625
Ni   0.1484375  0.29296875  0.9296875
Ni   0.2265625  0.39453125  0.9453125
Ni   0.3046875  0.49609375  0.9609375
Ni   0.296875  0.5859375  0.859375
Ni   0.2890625  0.67578125  0.7578125
Ni   0.28125  0.765625  0.65625
Ni   0.2734375  0.85546875  0.5546875
Ni   0.265625  0.9453125  0.453125
Ni   0.296875  0.0859375000000001  0.859375
Ni   0.375  0.1875  0.875
Ni   0.453125  0.2890625  0.890625
Ni   0.4453125  0.37890625  0.7890625
Ni   0.4375  0.46875  0.6875
Ni   0.4296875  0.55859375  0.5859375
Ni   0.421875  0.6484375  0.484375
Ni   0.4140625  0.73828125  0.3828125
Ni   0.40625  0.828125  0.28125
Ni   0.3984375  0.91796875  0.1796875
Ni   0.6015625  0.0820312500000001  0.8203125
Ni   0.59375  0.171875  0.71875
Ni   0.5859375  0.26171875  0.6171875
Ni   0.578125  0.3515625  0.515625
Ni   0.5703125  0.44140625  0.4140625
Ni   0.5625  0.53125  0.3125
Ni   0.5546875  0.62109375  0.2109375
Ni   0.546875  0.7109375  0.109375
Ni   0.5390625  0.80078125  0.0078125
Ni   0.734375  0.0546875  0.546875
Ni   0.7265625  0.14453125  0.4453125
Ni   0.71875  0.234375  0.34375
Ni   0.7109375  0.32421875  0.2421875
Ni   0.703125  0.4140625  0.140625
Ni   0.6953125  0.50390625  0.0390625
Ni   0.8671875  0.02734375  0.2734375
Ni   0.859375  0.1171875  0.171875
Ni   0.8515625  0.20703125  0.0703125
Ni   0.2265625  0.89453125  0.9453125
Ni   0.21875  0.984375  0.84375
Ni   0.3828125  0.59765625  0.9765625
Ni   0.375  0.6875  0.875
Ni   0.3671875  0.77734375  0.7734375
Ni   0.359375  0.8671875  0.671875
Ni   0.3515625  0.95703125  0.5703125
Ni   0.3828125  0.0976562500000001  0.9765625
Ni   0.4609375  0.19921875  0.9921875
Ni   0.53125  0.390625  0.90625
Ni   0.5234375  0.48046875  0.8046875
Ni   0.515625  0.5703125  0.703125
Ni   0.5078125  0.66015625  0.6015625
Ni   0.5  0.75  0.5
Ni   0.4921875  0.83984375  0.3984375
Ni   0.484375  0.9296875  0.296875
Ni   0.6875  0.0937500000000001  0.9375
Ni   0.6796875  0.18359375  0.8359375
Ni   0.671875  0.2734375  0.734375
Ni   0.6640625  0.36328125  0.6328125
Ni   0.65625  0.453125  0.53125
Ni   0.6484375  0.54296875  0.4296875
Ni   0.640625  0.6328125  0.328125
Ni   0.6328125  0.72265625  0.2265625
Ni   0.625  0.8125  0.125
Ni   0.6171875  0.90234375  0.0234375
Ni   0.8203125  0.0664062500000001  0.6640625
Ni   0.8125  0.15625  0.5625
Ni   0.8046875  0.24609375  0.4609375
Ni   0.796875  0.3359375  0.359375
Ni   0.7890625  0.42578125  0.2578125
Ni   0.78125  0.515625  0.15625
Ni   0.7734375  0.60546875  0.0546875
Ni   0.953125  0.0390625000000001  0.390625
Ni   0.9453125  0.12890625  0.2890625
Ni   0.9375  0.21875  0.1875
Ni   0.9296875  0.30859375  0.0859375
Ni   0.3046875  0.99609375  0.9609375
Ni   0.4609375  0.69921875  0.9921875
Ni   0.453125  0.7890625  0.890625
Ni   0.4453125  0.87890625  0.7890625
Ni   0.4375  0.96875  0.6875
Ni   0.609375  0.4921875  0.921875
Ni   0.6015625  0.58203125  0.8203125
Ni   0.59375  0.671875  0.71875
Ni   0.5859375  0.76171875  0.6171875
Ni   0.578125  0.8515625  0.515625
Ni   0.5703125  0.94140625  0.4140625
Ni   0.765625  0.1953125  0.953125
Ni   0.7578125  0.28515625  0.8515625
Ni   0.75  0.375  0.75
Ni   0.7421875  0.46484375  0.6484375
Ni   0.734375  0.5546875  0.546875
Ni   0.7265625  0.64453125  0.4453125
Ni   0.71875  0.734375  0.34375
Ni   0.7109375  0.82421875  0.2421875
Ni   0.703125  0.9140625  0.140625
Ni   0.90625  0.0781250000000002  0.78125
Ni   0.8984375  0.16796875  0.6796875
Ni   0.890625  0.2578125  0.578125
Ni   0.8828125  0.34765625  0.4765625
Ni   0.875  0.4375  0.375
Ni   0.8671875  0.52734375  0.2734375
Ni   0.859375  0.6171875  0.171875
Ni   0.8515625  0.70703125  0.0703125
Ni   0.53125  0.890625  0.90625
Ni   0.5234375  0.98046875  0.8046875
Ni   0.6875  0.59375  0.9375
Ni   0.6796875  0.68359375  0.8359375
Ni   0.671875  0.7734375  0.734375
Ni   0.6640625  0.86328125  0.6328125
Ni   0.65625  0.953125  0.53125
Ni   0.84375  0.296875  0.96875
Ni   0.8359375  0.38671875  0.8671875
Ni   0.828125  0.4765625  0.765625
Ni   0.8203125  0.56640625  0.6640625
Ni   0.8125  0.65625  0.5625
Ni   0.8046875  0.74609375  0.4609375
Ni   0.796875  0.8359375  0.359375
Ni   0.7890625  0.92578125  0.2578125
Ni   0.9921875  0.0898437500000002  0.8984375
Ni   0.984375  0.1796875  0.796875
Ni   0.9765625  0.26953125  0.6953125
Ni   0.96875  0.359375  0.59375
Ni   0.9609375  0.44921875  0.4921875
Ni   0.953125  0.5390625  0.390625
Ni   0.9453125  0.62890625  0.2890625
Ni   0.9375  0.71875  0.1875
Ni   0.9296875  0.80859375  0.0859375