 $CONTRL SCFTYP=ROHF RUNTYP=ENERGY MULT=1
   ISPHER=1 EXETYP=RUN COORD=UNIQUE MAXIT=200 ECP=READ $END
 $SYSTEM MEMORY=150000000 $END
 $GUESS  GUESS=HUCKEL $END
 $SCF DIRSCF=.TRUE. $END
 $ECP 
O-QMC GEN 2 1 
 3 
 6.00000000 1 9.29793903 
 55.78763416 3 8.86492204 
 -38.81978498 2 8.62925665 
 1 
 38.41914135 2 8.71924452 
H-QMC  GEN 0 0
3
1.000000000000 1 25.000000000000
25.000000000000 3 10.821821902641
-8.228005709676 2  9.368618758833
H-QMC  
 $END 
 $DATA  
H2O                                                                             
CNV      2

O           8.0      0.0000000000      0.0000000000      0.0000000000 
   S       9
     1              0.1253460000  0.05574100
     2              0.2680220000  0.30484800
     3              0.5730980000  0.45375200
     4              1.2254290000  0.29592600
     5              2.6202770000  0.01956700
     6              5.6028180000 -0.12862700
     7             11.9802450000  0.01202400
     8             25.6168010000  0.00040700
     9             54.7752160000 -0.00007600
   S       1
     1              1.6866330000  1.00000000
   S       1
     1              0.2379970000  1.00000000
   P       9
     1              0.0835980000  0.04495800
     2              0.1670170000  0.15017500
     3              0.3336730000  0.25599900
     4              0.6666270000  0.28187900
     5              1.3318160000  0.24283500
     6              2.6607610000  0.16113400
     7              5.3157850000  0.08230800
     8             10.6201080000  0.03989900
     9             21.2173180000  0.00467900
   P       1
     1              0.1846960000  1.00000000
   P       1
     1              0.6006210000  1.00000000
   D       1
     1              0.6693400000  1.00000000
   D       1
     1              2.4042780000  1.00000000
   F       1
     1              1.4231040000  1.00000000
        
H           1.0      0.0000000000      0.7571600000             0.5862600000
s 3 
1 8.70088777  0.01416863
2 1.95552046  0.05917887
3 0.55904363  0.17101570
s 1 
1 0.16492543  1.00000000
s 1 
1 0.03206251  1.00000000
p 1 
1 0.79007442  1.00000000
p 1 
1 0.15235137  1.00000000
d 1 
1 0.88381786  1.00000000
        
 $END      
