 $CONTRL SCFTYP=NONE CITYP=GUGA RUNTYP=ENERGY MULT=1
   ISPHER=1 EXETYP=RUN COORD=UNIQUE MAXIT=200 ECP=READ $END
 $SYSTEM MEMORY=150000000 $END
 $SCF DIRSCF=.TRUE. $END
 $GUESS GUESS=MOREAD NORB=57 PRTMO=.T. $END
 $CIDRT GROUP=C2v NFZC=0 NDOC=4 NALP=0 NVAL=30 NPRT=2
  ISTSYM=1 IEXCIT=2 MXNINT= 500000 $END
 $GUGDIA PRTTOL=0.001 CVGTOL=1.0E-5 ITERMX=1000 $END
 $ECP
O-QMC GEN 2 1
 3
 6.00000000 1 9.29793903
 55.78763416 3 8.86492204
 -38.81978498 2 8.62925665
 1
 38.41914135 2 8.71924452
H-QMC  GEN 0 0
3
1.00000000 1 4.47692410
4.47692410 3 2.97636451
-4.32112340 2 3.01841596
H-QMC
 $END
 $DATA
H2O
CNV      2

O           8.0      0.0000000000      0.0000000000      0.0000000000
   S       9
     1              0.1253460000  0.05574100
     2              0.2680220000  0.30484800
     3              0.5730980000  0.45375200
     4              1.2254290000  0.29592600
     5              2.6202770000  0.01956700
     6              5.6028180000 -0.12862700
     7             11.9802450000  0.01202400
     8             25.6168010000  0.00040700
     9             54.7752160000 -0.00007600
   S       1
     1              1.6866330000  1.00000000
   S       1
     1              0.2379970000  1.00000000
   P       9
     1              0.0835980000  0.04495800
     2              0.1670170000  0.15017500
     3              0.3336730000  0.25599900
     4              0.6666270000  0.28187900
     5              1.3318160000  0.24283500
     6              2.6607610000  0.16113400
     7              5.3157850000  0.08230800
     8             10.6201080000  0.03989900
     9             21.2173180000  0.00467900
   P       1
     1              0.1846960000  1.00000000
   P       1
     1              0.6006210000  1.00000000
   D       1
     1              0.6693400000  1.00000000
   D       1
     1              2.4042780000  1.00000000
   F       1
     1              1.4231040000  1.00000000

H           1.0      0.0000000000      0.7571600000      0.5862600000
s 6 1.00
1 6.359201     -0.004943
2 3.546637     0.049579
3 1.493442     0.037176
4 0.551948     0.287908
5 0.207203     0.009543
6 0.079234     0.770084
s 6 1.00
1 6.359201     -0.016672
2 3.546637     -0.005774
3 1.493442     -0.227982
4 0.551948     -0.285652
5 0.207203     -1.071579
6 0.079234     1.423767
s 6 1.00
1 6.359201     -0.018886
2 3.546637     -0.058854
3 1.493442     -0.556988
4 0.551948     -1.084022
5 0.207203     2.721525
6 0.079234     -1.458091
s 1 1.00
1 0.102700     1.000000
p 1 1.00
1 1.407000     1.000000
p 1 1.00
1 0.388000     1.000000
d 1 1.00
1 1.057000     1.000000

 $END
--- OPEN SHELL ORBITALS --- GENERATED AT Wed Jul  9 17:35:43 2014
H2O
E(ROHF)=      -16.9600590022, E(NUC)=    6.9807632466,   10 ITERS
 $VEC
 1  1 8.56318517E-01-1.06748303E-02-9.24551894E-02 0.00000000E+00 0.00000000E+00
 1  2 1.26393415E-01 0.00000000E+00 0.00000000E+00-3.68836772E-02 0.00000000E+00
 1  3 0.00000000E+00-2.07730438E-02-1.11880277E-04 9.06304610E-04-7.94424334E-04
 1  4 0.00000000E+00 0.00000000E+00 0.00000000E+00-3.51282277E-03 2.29147543E-03
 1  5 1.22134733E-03 0.00000000E+00 0.00000000E+00 0.00000000E+00 0.00000000E+00
 1  6 0.00000000E+00-1.63387122E-03 0.00000000E+00-1.81918343E-03 0.00000000E+00
 1  7 4.01125169E-03 0.00000000E+00 0.00000000E+00 0.00000000E+00 1.52778136E-01
 1  8 3.87118990E-02-8.83754031E-04 0.00000000E+00 2.80603494E-02-1.68628339E-02
 1  9 0.00000000E+00 1.07412602E-02-6.63258751E-03-3.92319158E-03 4.72708020E-03
 1 10-8.03888620E-04 0.00000000E+00 0.00000000E+00-5.73977140E-03 1.52778136E-01
 1 11 3.87118990E-02-8.83754031E-04 0.00000000E+00-2.80603494E-02-1.68628339E-02
 1 12 0.00000000E+00-1.07412602E-02-6.63258751E-03-3.92319158E-03 4.72708020E-03
 1 13-8.03888620E-04 0.00000000E+00 0.00000000E+00 5.73977140E-03
 2  1 0.00000000E+00 0.00000000E+00 0.00000000E+00 0.00000000E+00 7.47817142E-01
 2  2 0.00000000E+00 0.00000000E+00-1.10323124E-01 0.00000000E+00 0.00000000E+00
 2  3-3.03570748E-02 0.00000000E+00 0.00000000E+00 0.00000000E+00 0.00000000E+00
 2  4 0.00000000E+00 0.00000000E+00 1.88712061E-02 0.00000000E+00 0.00000000E+00
 2  5 0.00000000E+00 0.00000000E+00 0.00000000E+00 1.26308558E-02 0.00000000E+00
 2  6 1.89743650E-03 0.00000000E+00-4.72675343E-03 0.00000000E+00 0.00000000E+00
 2  7 0.00000000E+00 0.00000000E+00 2.18107524E-03 0.00000000E+00-2.54677333E-01
 2  8-1.88717277E-01 9.47178358E-03 0.00000000E+00-2.05615970E-02 2.86246758E-02
 2  9 0.00000000E+00-3.03226800E-02 1.57955656E-02 4.73193932E-03-1.73679038E-03
 2 10-2.99514894E-03 0.00000000E+00 0.00000000E+00 8.06262751E-03 2.54677333E-01
 2 11 1.88717277E-01-9.47178358E-03 0.00000000E+00-2.05615970E-02-2.86246758E-02
 2 12 0.00000000E+00-3.03226800E-02-1.57955656E-02-4.73193932E-03 1.73679038E-03
 2 13 2.99514894E-03 0.00000000E+00 0.00000000E+00 8.06262751E-03
 3  1-3.13460501E-01-6.47150973E-03-8.91189770E-02 0.00000000E+00 0.00000000E+00
 3  2 8.21105970E-01 0.00000000E+00 0.00000000E+00-1.40523680E-02 0.00000000E+00
 3  3 0.00000000E+00-4.96958228E-03-1.52221261E-02-1.27603749E-03 1.64981636E-02
 3  4 0.00000000E+00 0.00000000E+00 0.00000000E+00-5.54226572E-03 1.97473494E-04
 3  5 5.34479222E-03 0.00000000E+00 0.00000000E+00 0.00000000E+00 0.00000000E+00
 3  6 0.00000000E+00-7.77645326E-04 0.00000000E+00-3.77585343E-03 0.00000000E+00
 3  7 4.81917412E-03 0.00000000E+00 0.00000000E+00 0.00000000E+00 1.53543629E-01
 3  8 5.97458340E-02-5.31920195E-03 0.00000000E+00 1.93319935E-02 8.76829282E-03
 3  9 0.00000000E+00 1.12678140E-03 2.31093390E-02-1.67023051E-03 5.02739566E-03
 3 10-3.35716515E-03 0.00000000E+00 0.00000000E+00 1.15641706E-03 1.53543629E-01
 3 11 5.97458340E-02-5.31920195E-03 0.00000000E+00-1.93319935E-02 8.76829282E-03
 3 12 0.00000000E+00-1.12678140E-03 2.31093390E-02-1.67023051E-03 5.02739566E-03
 3 13-3.35716515E-03 0.00000000E+00 0.00000000E+00-1.15641706E-03
 4  1 0.00000000E+00 0.00000000E+00 0.00000000E+00 9.35677346E-01 0.00000000E+00
 4  2 0.00000000E+00 7.75942790E-03 0.00000000E+00 0.00000000E+00 5.85934497E-03
 4  3 0.00000000E+00 0.00000000E+00 0.00000000E+00 0.00000000E+00 0.00000000E+00
 4  4 0.00000000E+00 1.69049787E-02 0.00000000E+00 0.00000000E+00 0.00000000E+00
 4  5 0.00000000E+00 0.00000000E+00 5.01771916E-03 0.00000000E+00-3.53430858E-03
 4  6 0.00000000E+00 0.00000000E+00 0.00000000E+00 0.00000000E+00 3.29662508E-03
 4  7 0.00000000E+00 1.44514747E-03 0.00000000E+00 0.00000000E+00 0.00000000E+00
 4  8 0.00000000E+00 0.00000000E+00 2.54775562E-02 0.00000000E+00 0.00000000E+00
 4  9 3.28767428E-02 0.00000000E+00 0.00000000E+00 0.00000000E+00 0.00000000E+00
 4 10 0.00000000E+00 5.32961364E-03-3.45663891E-03 0.00000000E+00 0.00000000E+00
 4 11 0.00000000E+00 0.00000000E+00 2.54775562E-02 0.00000000E+00 0.00000000E+00
 4 12 3.28767428E-02 0.00000000E+00 0.00000000E+00 0.00000000E+00 0.00000000E+00
 4 13 0.00000000E+00-5.32961364E-03-3.45663891E-03 0.00000000E+00
 5  1-1.82303897E-01-8.38186140E-03 3.51944266E-01 0.00000000E+00 0.00000000E+00
 5  2-1.06517226E-01 0.00000000E+00 0.00000000E+00 1.68215109E-01 0.00000000E+00
 5  3 0.00000000E+00 1.27449783E-02-1.61167463E-02 1.31521815E-02 2.96456482E-03
 5  4 0.00000000E+00 0.00000000E+00 0.00000000E+00 1.23562153E-03-8.29829758E-05
 5  5-1.15263856E-03 0.00000000E+00 0.00000000E+00 0.00000000E+00 0.00000000E+00
 5  6 0.00000000E+00-1.30426402E-03 0.00000000E+00-1.67608753E-03 0.00000000E+00
 5  7 3.42594133E-03 0.00000000E+00 0.00000000E+00 0.00000000E+00 1.67604337E-03
 5  8-3.24376883E-01 6.20214907E-01 0.00000000E+00-3.12405486E-02 1.81944029E-02
 5  9 0.00000000E+00-1.16186304E-01 8.67506642E-02 3.49584477E-03-4.09826552E-03
 5 10 6.02420746E-04 0.00000000E+00 0.00000000E+00 6.43581624E-03 1.67604337E-03
 5 11-3.24376883E-01 6.20214907E-01 0.00000000E+00 3.12405486E-02 1.81944029E-02
 5 12 0.00000000E+00 1.16186304E-01 8.67506642E-02 3.49584477E-03-4.09826552E-03
 5 13 6.02420746E-04 0.00000000E+00 0.00000000E+00-6.43581624E-03
 6  1 0.00000000E+00 0.00000000E+00 0.00000000E+00 0.00000000E+00 1.40323507E-01
 6  2 0.00000000E+00 0.00000000E+00 1.50332692E-01 0.00000000E+00 0.00000000E+00
 6  3-2.58290188E-02 0.00000000E+00 0.00000000E+00 0.00000000E+00 0.00000000E+00
 6  4 0.00000000E+00 0.00000000E+00 2.01848376E-03 0.00000000E+00 0.00000000E+00
 6  5 0.00000000E+00 0.00000000E+00 0.00000000E+00 2.25798690E-04 0.00000000E+00
 6  6 1.25075228E-04 0.00000000E+00-1.85295590E-04 0.00000000E+00 0.00000000E+00
 6  7 0.00000000E+00 0.00000000E+00 1.74895627E-05 0.00000000E+00-1.25109195E-02
 6  8 1.45209771E-01 2.24929619E+00 0.00000000E+00-1.54577367E-02 6.48982538E-03
 6  9 0.00000000E+00 1.63429465E-01-1.41086347E-02 2.29756537E-04 2.13024932E-03
 6 10-2.36000585E-03 0.00000000E+00 0.00000000E+00 3.59017934E-03 1.25109195E-02
 6 11-1.45209771E-01-2.24929619E+00 0.00000000E+00-1.54577367E-02-6.48982538E-03
 6 12 0.00000000E+00 1.63429465E-01 1.41086347E-02-2.29756537E-04-2.13024932E-03
 6 13 2.36000585E-03 0.00000000E+00 0.00000000E+00 3.59017934E-03
 7  1-2.46525694E-01 2.63618861E-03-3.42993999E-01 0.00000000E+00 0.00000000E+00
 7  2-3.67637456E-01 0.00000000E+00 0.00000000E+00-5.63065655E-01 0.00000000E+00
 7  3 0.00000000E+00-2.73933181E-02 2.70537257E-02-1.82566937E-03-2.52280563E-02
 7  4 0.00000000E+00 0.00000000E+00 0.00000000E+00-5.96520386E-03 4.24598614E-03
 7  5 1.71921771E-03 0.00000000E+00 0.00000000E+00 0.00000000E+00 0.00000000E+00
 7  6 0.00000000E+00 1.76571818E-03 0.00000000E+00 5.36625215E-03 0.00000000E+00
 7  7-7.73521168E-03 0.00000000E+00 0.00000000E+00 0.00000000E+00 7.41932368E-02
 7  8 1.11502141E+00-4.88813236E-01 0.00000000E+00 2.02994827E-02-1.57754303E-02
 7  9 0.00000000E+00-2.63280055E-01 3.53713379E-01-1.51654436E-03 2.79583773E-03
 7 10-1.27929337E-03 0.00000000E+00 0.00000000E+00 1.86612254E-03 7.41932368E-02
 7 11 1.11502141E+00-4.88813236E-01 0.00000000E+00-2.02994827E-02-1.57754303E-02
 7 12 0.00000000E+00 2.63280055E-01 3.53713379E-01-1.51654436E-03 2.79583773E-03
 7 13-1.27929337E-03 0.00000000E+00 0.00000000E+00-1.86612254E-03
 8  1 0.00000000E+00 0.00000000E+00 0.00000000E+00 0.00000000E+00-3.59079911E-01
 8  2 0.00000000E+00 0.00000000E+00 1.06091717E+00 0.00000000E+00 0.00000000E+00
 8  3 1.10489531E-02 0.00000000E+00 0.00000000E+00 0.00000000E+00 0.00000000E+00
 8  4 0.00000000E+00 0.00000000E+00 5.68398339E-02 0.00000000E+00 0.00000000E+00
 8  5 0.00000000E+00 0.00000000E+00 0.00000000E+00 2.28961938E-03 0.00000000E+00
 8  6-1.18323011E-03 0.00000000E+00-1.77510728E-03 0.00000000E+00 0.00000000E+00
 8  7 0.00000000E+00 0.00000000E+00 3.36257706E-03 0.00000000E+00-6.76495310E-02
 8  8 1.56611261E+00 1.18178293E+00 0.00000000E+00 2.58235946E-02-3.35662705E-02
 8  9 0.00000000E+00 1.25832311E+00-9.93733174E-01-1.31650900E-02 9.36222827E-03
 8 10 3.80286169E-03 0.00000000E+00 0.00000000E+00-1.31944967E-02 6.76495310E-02
 8 11-1.56611261E+00-1.18178293E+00 0.00000000E+00 2.58235946E-02 3.35662705E-02
 8 12 0.00000000E+00 1.25832311E+00 9.93733174E-01 1.31650900E-02-9.36222827E-03
 8 13-3.80286169E-03 0.00000000E+00 0.00000000E+00-1.31944967E-02
 9  1 1.24539391E-01-5.56359201E-04 7.02888187E-01 0.00000000E+00 0.00000000E+00
 9  2-1.52703639E-01 0.00000000E+00 0.00000000E+00-3.70121540E-01 0.00000000E+00
 9  3 0.00000000E+00 3.13778021E-02-4.70030420E-03 3.02038630E-02-2.55035588E-02
 9  4 0.00000000E+00 0.00000000E+00 0.00000000E+00 1.09817249E-03-1.17364094E-02
 9  5 1.06382369E-02 0.00000000E+00 0.00000000E+00 0.00000000E+00 0.00000000E+00
 9  6 0.00000000E+00-2.07272083E-03 0.00000000E+00-6.76397960E-04 0.00000000E+00
 9  7 3.45724476E-03 0.00000000E+00 0.00000000E+00 0.00000000E+00-8.03760914E-02
 9  8-4.15554875E-01 4.00340902E-02 0.00000000E+00-1.89212522E-02 1.17464389E-02
 9  9 0.00000000E+00 3.41379301E-01 7.33558367E-01 7.48462713E-03 8.81669930E-03
 9 10-1.63013264E-02 0.00000000E+00 0.00000000E+00 1.38597321E-02-8.03760914E-02
 9 11-4.15554875E-01 4.00340902E-02 0.00000000E+00 1.89212522E-02 1.17464389E-02
 9 12 0.00000000E+00-3.41379301E-01 7.33558367E-01 7.48462713E-03 8.81669930E-03
 9 13-1.63013264E-02 0.00000000E+00 0.00000000E+00-1.38597321E-02
10  1 0.00000000E+00 0.00000000E+00 0.00000000E+00-3.49905280E-01 0.00000000E+00
10  2 0.00000000E+00-8.61439696E-01 0.00000000E+00 0.00000000E+00 4.08087091E-03
10  3 0.00000000E+00 0.00000000E+00 0.00000000E+00 0.00000000E+00 0.00000000E+00
10  4 0.00000000E+00-2.84273035E-02 0.00000000E+00 0.00000000E+00 0.00000000E+00
10  5 0.00000000E+00 0.00000000E+00 8.91067551E-03 0.00000000E+00 3.49368749E-03
10  6 0.00000000E+00 0.00000000E+00 0.00000000E+00 0.00000000E+00-4.05319238E-03
10  7 0.00000000E+00-6.34081247E-04 0.00000000E+00 0.00000000E+00 0.00000000E+00
10  8 0.00000000E+00 0.00000000E+00-1.81175517E-02 0.00000000E+00 0.00000000E+00
10  9 9.69111710E-01 0.00000000E+00 0.00000000E+00 0.00000000E+00 0.00000000E+00
10 10 0.00000000E+00 1.41020191E-02-7.99971911E-03 0.00000000E+00 0.00000000E+00
10 11 0.00000000E+00 0.00000000E+00-1.81175517E-02 0.00000000E+00 0.00000000E+00
10 12 9.69111710E-01 0.00000000E+00 0.00000000E+00 0.00000000E+00 0.00000000E+00
10 13 0.00000000E+00-1.41020191E-02-7.99971911E-03 0.00000000E+00
11  1 0.00000000E+00 0.00000000E+00 0.00000000E+00 0.00000000E+00 0.00000000E+00
11  2 0.00000000E+00 0.00000000E+00 0.00000000E+00 0.00000000E+00 0.00000000E+00
11  3 0.00000000E+00 0.00000000E+00 0.00000000E+00 0.00000000E+00 0.00000000E+00
11  4 1.33017228E-02 0.00000000E+00 0.00000000E+00 0.00000000E+00 0.00000000E+00
11  5 0.00000000E+00-1.36103423E-02 0.00000000E+00 0.00000000E+00 0.00000000E+00
11  6 0.00000000E+00 0.00000000E+00 0.00000000E+00 0.00000000E+00 0.00000000E+00
11  7 0.00000000E+00 0.00000000E+00 0.00000000E+00 1.06433372E-03 0.00000000E+00
11  8 0.00000000E+00 0.00000000E+00-1.06457773E-02 0.00000000E+00 0.00000000E+00
11  9 1.05141205E+00 0.00000000E+00 0.00000000E+00 0.00000000E+00 0.00000000E+00
11 10 0.00000000E+00 1.31492820E-02-1.12134024E-02 0.00000000E+00 0.00000000E+00
11 11 0.00000000E+00 0.00000000E+00 1.06457773E-02 0.00000000E+00 0.00000000E+00
11 12-1.05141205E+00 0.00000000E+00 0.00000000E+00 0.00000000E+00 0.00000000E+00
11 13 0.00000000E+00 1.31492820E-02 1.12134024E-02 0.00000000E+00
12  1 0.00000000E+00 0.00000000E+00 0.00000000E+00 0.00000000E+00-2.09853482E-01
12  2 0.00000000E+00 0.00000000E+00-8.03647885E-01 0.00000000E+00 0.00000000E+00
12  3-2.40471051E-02 0.00000000E+00 0.00000000E+00 0.00000000E+00 0.00000000E+00
12  4 0.00000000E+00 0.00000000E+00-3.60617043E-02 0.00000000E+00 0.00000000E+00
12  5 0.00000000E+00 0.00000000E+00 0.00000000E+00-6.60511018E-03 0.00000000E+00
12  6-1.91802267E-03 0.00000000E+00 4.00311505E-03 0.00000000E+00 0.00000000E+00
12  7 0.00000000E+00 0.00000000E+00-1.42981761E-03 0.00000000E+00 6.31679507E-02
12  8-1.93328453E-01 8.78921669E-01 0.00000000E+00-2.32313502E-02-1.77986794E-02
12  9 0.00000000E+00 9.84040929E-01 1.12647308E+00-4.13151032E-03 1.66283212E-02
12 10-1.24968108E-02 0.00000000E+00 0.00000000E+00 7.90424513E-03-6.31679507E-02
12 11 1.93328453E-01-8.78921669E-01 0.00000000E+00-2.32313502E-02 1.77986794E-02
12 12 0.00000000E+00 9.84040929E-01-1.12647308E+00 4.13151032E-03-1.66283212E-02
12 13 1.24968108E-02 0.00000000E+00 0.00000000E+00 7.90424513E-03
13  1 1.19743556E-01-1.81773746E-02 3.87188828E+00 0.00000000E+00 0.00000000E+00
13  2-4.67457909E-02 0.00000000E+00 0.00000000E+00 9.77227098E-01 0.00000000E+00
13  3 0.00000000E+00 9.71108233E-02-7.13411489E-02 6.44776602E-02 6.86348869E-03
13  4 0.00000000E+00 0.00000000E+00 0.00000000E+00-8.92087520E-04 3.63286298E-03
13  5-2.74077546E-03 0.00000000E+00 0.00000000E+00 0.00000000E+00 0.00000000E+00
13  6 0.00000000E+00-9.34548366E-03 0.00000000E+00-1.05362805E-02 0.00000000E+00
13  7 2.30745625E-02 0.00000000E+00 0.00000000E+00 0.00000000E+00-7.98174104E-02
13  8-1.78138025E+00 1.21445563E-01 0.00000000E+00-7.72974638E-02 5.03183903E-02
13  9 0.00000000E+00-1.16965717E+00 6.89379201E-01 1.72099707E-02-1.67278891E-02
13 10-4.82081658E-04 0.00000000E+00 0.00000000E+00 3.20259864E-02-7.98174104E-02
13 11-1.78138025E+00 1.21445563E-01 0.00000000E+00 7.72974638E-02 5.03183903E-02
13 12 0.00000000E+00 1.16965717E+00 6.89379201E-01 1.72099707E-02-1.67278891E-02
13 13-4.82081658E-04 0.00000000E+00 0.00000000E+00-3.20259864E-02
14  1 0.00000000E+00 0.00000000E+00 0.00000000E+00 0.00000000E+00 4.72462437E-01
14  2 0.00000000E+00 0.00000000E+00 4.48884200E+00 0.00000000E+00 0.00000000E+00
14  3 1.04358696E-01 0.00000000E+00 0.00000000E+00 0.00000000E+00 0.00000000E+00
14  4 0.00000000E+00 0.00000000E+00 1.08014588E-01 0.00000000E+00 0.00000000E+00
14  5 0.00000000E+00 0.00000000E+00 0.00000000E+00-1.97265246E-02 0.00000000E+00
14  6 3.48464695E-03 0.00000000E+00-1.14699685E-02 0.00000000E+00 0.00000000E+00
14  7 0.00000000E+00 0.00000000E+00 6.79482402E-03 0.00000000E+00 2.09708253E-01
14  8 7.70950048E+00 7.53866721E-01 0.00000000E+00 6.15823223E-02-3.75223056E-02
14  9 0.00000000E+00 2.91580170E+00-2.09439130E+00-2.44989147E-02 2.61902779E-02
14 10-1.69136317E-03 0.00000000E+00 0.00000000E+00-3.40769617E-02-2.09708253E-01
14 11-7.70950048E+00-7.53866721E-01 0.00000000E+00 6.15823223E-02 3.75223056E-02
14 12 0.00000000E+00 2.91580170E+00 2.09439130E+00 2.44989147E-02-2.61902779E-02
14 13 1.69136317E-03 0.00000000E+00 0.00000000E+00-3.40769617E-02
15  1-1.76316287E-01 1.19530433E-02-8.91954231E-01 0.00000000E+00 0.00000000E+00
15  2-4.89521575E-01 0.00000000E+00 0.00000000E+00 2.06193465E+00 0.00000000E+00
15  3 0.00000000E+00-6.55398755E-01 7.70716716E-02-8.62158274E-02 9.14415580E-03
15  4 0.00000000E+00 0.00000000E+00 0.00000000E+00 1.72284036E-02-1.29998981E-03
15  5-1.59284138E-02 0.00000000E+00 0.00000000E+00 0.00000000E+00 0.00000000E+00
15  6 0.00000000E+00 1.58688438E-02 0.00000000E+00 7.87282207E-03 0.00000000E+00
15  7-2.91631101E-02 0.00000000E+00 0.00000000E+00 0.00000000E+00-6.72887062E-02
15  8 7.17977692E-02 1.23665478E-01 0.00000000E+00 3.99669422E-02-1.13790431E-01
15  9 0.00000000E+00 2.83143310E-01-6.91456088E-01-3.52597490E-02 1.74292626E-02
15 10 1.78304864E-02 0.00000000E+00 0.00000000E+00-8.68740409E-02-6.72887062E-02
15 11 7.17977692E-02 1.23665478E-01 0.00000000E+00-3.99669422E-02-1.13790431E-01
15 12 0.00000000E+00-2.83143310E-01-6.91456088E-01-3.52597490E-02 1.74292626E-02
15 13 1.78304864E-02 0.00000000E+00 0.00000000E+00 8.68740409E-02
16  1 0.00000000E+00 0.00000000E+00 0.00000000E+00-5.09203464E-01 0.00000000E+00
16  2 0.00000000E+00 2.28120543E+00 0.00000000E+00 0.00000000E+00-5.20094066E-01
16  3 0.00000000E+00 0.00000000E+00 0.00000000E+00 0.00000000E+00 0.00000000E+00
16  4 0.00000000E+00-2.21048191E-02 0.00000000E+00 0.00000000E+00 0.00000000E+00
16  5 0.00000000E+00 0.00000000E+00-1.18474908E-02 0.00000000E+00-3.55098286E-03
16  6 0.00000000E+00 0.00000000E+00 0.00000000E+00 0.00000000E+00 3.29142308E-03
16  7 0.00000000E+00 1.47272036E-03 0.00000000E+00 0.00000000E+00 0.00000000E+00
16  8 0.00000000E+00 0.00000000E+00-5.90831724E-02 0.00000000E+00 0.00000000E+00
16  9-6.45920412E-01 0.00000000E+00 0.00000000E+00 0.00000000E+00 0.00000000E+00
16 10 0.00000000E+00-1.34121498E-02-3.40524596E-03 0.00000000E+00 0.00000000E+00
16 11 0.00000000E+00 0.00000000E+00-5.90831724E-02 0.00000000E+00 0.00000000E+00
16 12-6.45920412E-01 0.00000000E+00 0.00000000E+00 0.00000000E+00 0.00000000E+00
16 13 0.00000000E+00 1.34121498E-02-3.40524596E-03 0.00000000E+00
17  1 0.00000000E+00 0.00000000E+00 0.00000000E+00 0.00000000E+00-2.59976103E-01
17  2 0.00000000E+00 0.00000000E+00 3.31020394E+00 0.00000000E+00 0.00000000E+00
17  3-1.00071018E+00 0.00000000E+00 0.00000000E+00 0.00000000E+00 0.00000000E+00
17  4 0.00000000E+00 0.00000000E+00-2.58620323E-01 0.00000000E+00 0.00000000E+00
17  5 0.00000000E+00 0.00000000E+00 0.00000000E+00-3.65227540E-02 0.00000000E+00
17  6-9.66468907E-04 0.00000000E+00 3.20872151E-02 0.00000000E+00 0.00000000E+00
17  7 0.00000000E+00 0.00000000E+00-3.07905610E-02 0.00000000E+00 1.63928441E-01
17  8 7.26702839E-01-6.14787131E-02 0.00000000E+00-2.03169085E-01 1.50573950E-01
17  9 0.00000000E+00-8.45447255E-01-9.62004080E-01 7.67736277E-02-6.92492045E-02
17 10-7.52442316E-03 0.00000000E+00 0.00000000E+00 1.19176459E-01-1.63928441E-01
17 11-7.26702839E-01 6.14787131E-02 0.00000000E+00-2.03169085E-01-1.50573950E-01
17 12 0.00000000E+00-8.45447255E-01 9.62004080E-01-7.67736277E-02 6.92492045E-02
17 13 7.52442316E-03 0.00000000E+00 0.00000000E+00 1.19176459E-01
18  1-2.96409659E-01-9.39655677E-02 2.19617152E+00 0.00000000E+00 0.00000000E+00
18  2-4.68565892E-01 0.00000000E+00 0.00000000E+00 3.80710936E-01 0.00000000E+00
18  3 0.00000000E+00 4.91266241E-01-3.91804602E-01 3.23706245E-01 6.80983561E-02
18  4 0.00000000E+00 0.00000000E+00 0.00000000E+00-8.41035500E-03 1.24308891E-02
18  5-4.02053408E-03 0.00000000E+00 0.00000000E+00 0.00000000E+00 0.00000000E+00
18  6 0.00000000E+00-3.02869508E-02 0.00000000E+00-4.26575413E-02 0.00000000E+00
18  7 8.32917497E-02 0.00000000E+00 0.00000000E+00 0.00000000E+00 4.96094617E-01
18  8-1.46451497E+00 2.36033735E-01 0.00000000E+00-4.18295506E-01 2.50210203E-01
18  9 0.00000000E+00 4.93484563E-03 1.92346069E-01 5.39856102E-02-5.29118491E-02
18 10-1.07376111E-03 0.00000000E+00 0.00000000E+00 1.00969876E-01 4.96094617E-01
18 11-1.46451497E+00 2.36033735E-01 0.00000000E+00 4.18295506E-01 2.50210203E-01
18 12 0.00000000E+00-4.93484563E-03 1.92346069E-01 5.39856102E-02-5.29118491E-02
18 13-1.07376111E-03 0.00000000E+00 0.00000000E+00-1.00969876E-01
19  1 0.00000000E+00 0.00000000E+00 0.00000000E+00 0.00000000E+00-6.74044328E-01
19  2 0.00000000E+00 0.00000000E+00 5.14469104E+00 0.00000000E+00 0.00000000E+00
19  3 6.44325842E-01 0.00000000E+00 0.00000000E+00 0.00000000E+00 0.00000000E+00
19  4 0.00000000E+00 0.00000000E+00 7.19233040E-01 0.00000000E+00 0.00000000E+00
19  5 0.00000000E+00 0.00000000E+00 0.00000000E+00 1.76467030E-03 0.00000000E+00
19  6 6.63362796E-03 0.00000000E+00-7.05352783E-02 0.00000000E+00 0.00000000E+00
19  7 0.00000000E+00 0.00000000E+00 6.16353325E-02 0.00000000E+00-4.09013246E-01
19  8 8.17853440E+00 1.36144481E-01 0.00000000E+00 4.57130645E-01-4.19014157E-01
19  9 0.00000000E+00 2.40257267E+00-1.62325493E+00-6.40329711E-02 6.19819622E-02
19 10 2.05100884E-03 0.00000000E+00 0.00000000E+00-1.42063697E-01 4.09013246E-01
19 11-8.17853440E+00-1.36144481E-01 0.00000000E+00 4.57130645E-01 4.19014157E-01
19 12 0.00000000E+00 2.40257267E+00 1.62325493E+00 6.40329711E-02-6.19819622E-02
19 13-2.05100884E-03 0.00000000E+00 0.00000000E+00-1.42063697E-01
20  1-2.82918159E-01-4.27323067E-02 1.32800602E+00 0.00000000E+00 0.00000000E+00
20  2-3.14356865E-01 0.00000000E+00 0.00000000E+00 6.55932869E-01 0.00000000E+00
20  3 0.00000000E+00 1.75526307E-01-1.48324662E-01-4.22673941E-01 5.70998603E-01
20  4 0.00000000E+00 0.00000000E+00 0.00000000E+00 2.35527910E-03-5.84342690E-03
20  5 3.48814779E-03 0.00000000E+00 0.00000000E+00 0.00000000E+00 0.00000000E+00
20  6 0.00000000E+00 1.74406051E-03 0.00000000E+00-1.13746762E-02 0.00000000E+00
20  7 9.03477351E-03 0.00000000E+00 0.00000000E+00 0.00000000E+00-4.14129485E-02
20  8-4.68661015E-01 3.56238174E-02 0.00000000E+00 1.75549060E-01 4.12577258E-01
20  9 0.00000000E+00-4.15611549E-01-1.90692709E-01-1.78193054E-02-6.27551635E-02
20 10 8.05744689E-02 0.00000000E+00 0.00000000E+00 3.46807132E-02-4.14129485E-02
20 11-4.68661015E-01 3.56238174E-02 0.00000000E+00-1.75549060E-01 4.12577258E-01
20 12 0.00000000E+00 4.15611549E-01-1.90692709E-01-1.78193054E-02-6.27551635E-02
20 13 8.05744689E-02 0.00000000E+00 0.00000000E+00-3.46807132E-02
21  1 0.00000000E+00 0.00000000E+00 0.00000000E+00 0.00000000E+00 0.00000000E+00
21  2 0.00000000E+00 0.00000000E+00 0.00000000E+00 0.00000000E+00 0.00000000E+00
21  3 0.00000000E+00 0.00000000E+00 0.00000000E+00 0.00000000E+00 0.00000000E+00
21  4 6.87932720E-01 0.00000000E+00 0.00000000E+00 0.00000000E+00 0.00000000E+00
21  5 0.00000000E+00 3.27308503E-03 0.00000000E+00 0.00000000E+00 0.00000000E+00
21  6 0.00000000E+00 0.00000000E+00 0.00000000E+00 0.00000000E+00 0.00000000E+00
21  7 0.00000000E+00 0.00000000E+00 0.00000000E+00 1.84367287E-02 0.00000000E+00
21  8 0.00000000E+00 0.00000000E+00-4.32372318E-01 0.00000000E+00 0.00000000E+00
21  9 5.20851409E-01 0.00000000E+00 0.00000000E+00 0.00000000E+00 0.00000000E+00
21 10 0.00000000E+00 8.76440050E-02-2.54257051E-02 0.00000000E+00 0.00000000E+00
21 11 0.00000000E+00 0.00000000E+00 4.32372318E-01 0.00000000E+00 0.00000000E+00
21 12-5.20851409E-01 0.00000000E+00 0.00000000E+00 0.00000000E+00 0.00000000E+00
21 13 0.00000000E+00 8.76440050E-02 2.54257051E-02 0.00000000E+00
22  1 0.00000000E+00 0.00000000E+00 0.00000000E+00-3.90726709E-01 0.00000000E+00
22  2 0.00000000E+00 7.12562284E-01 0.00000000E+00 0.00000000E+00 8.06487445E-02
22  3 0.00000000E+00 0.00000000E+00 0.00000000E+00 0.00000000E+00 0.00000000E+00
22  4 0.00000000E+00 7.03891171E-01 0.00000000E+00 0.00000000E+00 0.00000000E+00
22  5 0.00000000E+00 0.00000000E+00-3.15558038E-03 0.00000000E+00-1.51728765E-02
22  6 0.00000000E+00 0.00000000E+00 0.00000000E+00 0.00000000E+00 9.85164210E-03
22  7 0.00000000E+00 1.05049078E-02 0.00000000E+00 0.00000000E+00 0.00000000E+00
22  8 0.00000000E+00 0.00000000E+00 3.95173296E-01 0.00000000E+00 0.00000000E+00
22  9-4.46279928E-01 0.00000000E+00 0.00000000E+00 0.00000000E+00 0.00000000E+00
22 10 0.00000000E+00-2.71837107E-02 1.11121383E-01 0.00000000E+00 0.00000000E+00
22 11 0.00000000E+00 0.00000000E+00 3.95173296E-01 0.00000000E+00 0.00000000E+00
22 12-4.46279928E-01 0.00000000E+00 0.00000000E+00 0.00000000E+00 0.00000000E+00
22 13 0.00000000E+00 2.71837107E-02 1.11121383E-01 0.00000000E+00
23  1-1.85290177E+00-2.26498420E-01 6.33909589E+00 0.00000000E+00 0.00000000E+00
23  2 8.04017757E-02 0.00000000E+00 0.00000000E+00 7.02788356E-01 0.00000000E+00
23  3 0.00000000E+00 4.29374414E-01 3.73451249E-01-1.39877495E-01-2.33573754E-01
23  4 0.00000000E+00 0.00000000E+00 0.00000000E+00 1.24825479E-03-2.15432966E-03
23  5 9.06074867E-04 0.00000000E+00 0.00000000E+00 0.00000000E+00 0.00000000E+00
23  6 0.00000000E+00-1.99142674E-02 0.00000000E+00-2.28770625E-02 0.00000000E+00
23  7 4.95948559E-02 0.00000000E+00 0.00000000E+00 0.00000000E+00-3.23175929E-01
23  8-1.90367496E+00 5.60255401E-02 0.00000000E+00-2.93161461E-01 1.67916290E-01
23  9 0.00000000E+00-7.20276442E-01 6.05398836E-01 1.21008587E-01-7.06476452E-02
23 10-5.03609420E-02 0.00000000E+00 0.00000000E+00 3.90033328E-02-3.23175929E-01
23 11-1.90367496E+00 5.60255401E-02 0.00000000E+00 2.93161461E-01 1.67916290E-01
23 12 0.00000000E+00 7.20276442E-01 6.05398836E-01 1.21008587E-01-7.06476452E-02
23 13-5.03609420E-02 0.00000000E+00 0.00000000E+00-3.90033328E-02
24  1 0.00000000E+00 0.00000000E+00 0.00000000E+00 0.00000000E+00 3.48331590E-01
24  2 0.00000000E+00 0.00000000E+00 4.46757271E-01 0.00000000E+00 0.00000000E+00
24  3-4.67537816E-01 0.00000000E+00 0.00000000E+00 0.00000000E+00 0.00000000E+00
24  4 0.00000000E+00 0.00000000E+00 8.76578214E-02 0.00000000E+00 0.00000000E+00
24  5 0.00000000E+00 0.00000000E+00 0.00000000E+00 8.89999827E-03 0.00000000E+00
24  6-3.39932949E-02 0.00000000E+00 2.09648275E-02 0.00000000E+00 0.00000000E+00
24  7 0.00000000E+00 0.00000000E+00 2.46419634E-02 0.00000000E+00-7.43470126E-03
24  8 8.44377791E-01 3.38874550E-01 0.00000000E+00-6.08478096E-01-4.56324560E-01
24  9 0.00000000E+00 5.92632566E-01 1.57826012E-01-3.23662353E-02 1.33011393E-01
24 10-1.00645158E-01 0.00000000E+00 0.00000000E+00 1.04071184E-01 7.43470126E-03
24 11-8.44377791E-01-3.38874550E-01 0.00000000E+00-6.08478096E-01 4.56324560E-01
24 12 0.00000000E+00 5.92632566E-01-1.57826012E-01 3.23662353E-02-1.33011393E-01
24 13 1.00645158E-01 0.00000000E+00 0.00000000E+00 1.04071184E-01
25  1-1.11377520E+00-1.40505010E-01 3.22577719E+00 0.00000000E+00 0.00000000E+00
25  2 1.13036167E-01 0.00000000E+00 0.00000000E+00 6.30257228E-01 0.00000000E+00
25  3 0.00000000E+00-1.29506978E-01-5.50630147E-01 5.04783954E-01 4.58461928E-02
25  4 0.00000000E+00 0.00000000E+00 0.00000000E+00-1.11125763E-02 1.37806117E-03
25  5 9.73451514E-03 0.00000000E+00 0.00000000E+00 0.00000000E+00 0.00000000E+00
25  6 0.00000000E+00-5.43629147E-03 0.00000000E+00 1.50974275E-02 0.00000000E+00
25  7-7.80387711E-03 0.00000000E+00 0.00000000E+00 0.00000000E+00-5.20747217E-01
25  8-7.38230447E-01 4.08839567E-03 0.00000000E+00 2.13811025E-01-1.47113465E-01
25  9 0.00000000E+00-4.20552640E-01 2.79818418E-01-4.39709128E-03 7.23760117E-03
25 10-2.84050989E-03 0.00000000E+00 0.00000000E+00 3.13482352E-01-5.20747217E-01
25 11-7.38230447E-01 4.08839567E-03 0.00000000E+00-2.13811025E-01-1.47113465E-01
25 12 0.00000000E+00 4.20552640E-01 2.79818418E-01-4.39709128E-03 7.23760117E-03
25 13-2.84050989E-03 0.00000000E+00 0.00000000E+00-3.13482352E-01
26  1 0.00000000E+00 0.00000000E+00 0.00000000E+00-3.45100668E-01 0.00000000E+00
26  2 0.00000000E+00-2.16894541E-01 0.00000000E+00 0.00000000E+00 2.85106647E-01
26  3 0.00000000E+00 0.00000000E+00 0.00000000E+00 0.00000000E+00 0.00000000E+00
26  4 0.00000000E+00-6.23451634E-01 0.00000000E+00 0.00000000E+00 0.00000000E+00
26  5 0.00000000E+00 0.00000000E+00 4.73563037E-03 0.00000000E+00-3.27593875E-02
26  6 0.00000000E+00 0.00000000E+00 0.00000000E+00 0.00000000E+00 3.80980879E-02
26  7 0.00000000E+00 5.85324252E-03 0.00000000E+00 0.00000000E+00 0.00000000E+00
26  8 0.00000000E+00 0.00000000E+00 6.35528132E-01 0.00000000E+00 0.00000000E+00
26  9-4.14062455E-02 0.00000000E+00 0.00000000E+00 0.00000000E+00 0.00000000E+00
26 10 0.00000000E+00-2.62081869E-01-6.38718364E-02 0.00000000E+00 0.00000000E+00
26 11 0.00000000E+00 0.00000000E+00 6.35528132E-01 0.00000000E+00 0.00000000E+00
26 12-4.14062455E-02 0.00000000E+00 0.00000000E+00 0.00000000E+00 0.00000000E+00
26 13 0.00000000E+00 2.62081869E-01-6.38718364E-02 0.00000000E+00
27  1 0.00000000E+00 0.00000000E+00 0.00000000E+00 0.00000000E+00-1.80628676E-01
27  2 0.00000000E+00 0.00000000E+00 1.00101661E+00 0.00000000E+00 0.00000000E+00
27  3-4.72652256E-01 0.00000000E+00 0.00000000E+00 0.00000000E+00 0.00000000E+00