&CONTROL
   calculation     = 'scf'
   outdir          = 'pwscf_output'
   prefix          = 'pwscf'
   pseudo_dir      = './'
/

&SYSTEM
   !celldm(1)       = 1.0
   ecutwfc         = 75
   ibrav           = 0
   input_dft       = 'lda'
   nat             = 15
   nspin           = 1
   ntyp            = 1
   tot_charge      = 0
/

&ELECTRONS
   conv_thr        = 1e-07
/


ATOMIC_SPECIES 
   C  12.011 C.BFD.upf

ATOMIC_POSITIONS bohr
   C        0.00000000       0.00000000       0.00000000 
   C        3.37316115       3.37316115       0.00000000 
   C        5.05974172       5.05974172       1.68658057 
   C        0.00000000       3.37316115       3.37316115 
   C        1.68658057       5.05974172       5.05974172 
   C        3.37316115       6.74632229       3.37316115 
   C        5.05974172       8.43290286       5.05974172 
   C        3.37316115       0.00000000       3.37316115 
   C        5.05974172       1.68658057       5.05974172 
   C        6.74632229       3.37316115       3.37316115 
   C        8.43290286       5.05974172       5.05974172 
   C        3.37316115       3.37316115       6.74632229 
   C        5.05974172       5.05974172       8.43290286 
   C        6.74632229       6.74632229       6.74632229 
   C        8.43290286       8.43290286       8.43290286 

K_POINTS automatic
   2 2 2  0 0 0 

CELL_PARAMETERS bohr
         6.74632229       6.74632229       0.00000000 
         0.00000000       6.74632229       6.74632229 
         6.74632229       0.00000000       6.74632229 


