 $CONTRL SCFTYP=NONE CITYP=GUGA RUNTYP=ENERGY MULT=1
   ISPHER=1 EXETYP=RUN COORD=UNIQUE MAXIT=200 ECP=READ $END
 $SYSTEM MEMORY=150000000 $END
 $SCF DIRSCF=.TRUE. $END
 $GUESS GUESS=MOREAD NORB=57 PRTMO=.T. $END
 $CIDRT GROUP=C2v NFZC=0 NDOC=4 NALP=0 NVAL=4 NPRT=2
  ISTSYM=1 SOCI=.TRUE. NEXT=30 MXNINT= 500000 $END
 $GUGDIA PRTTOL=0.001 CVGTOL=1.0E-5 ITERMX=1000 $END
 $ECP
O-QMC GEN 2 1
 3
 6.00000000 1 9.29793903
 55.78763416 3 8.86492204
 -38.81978498 2 8.62925665
 1
 38.41914135 2 8.71924452
H-QMC  GEN 0 0
3
1.00000000 1 4.47692410
4.47692410 3 2.97636451
-4.32112340 2 3.01841596
H-QMC
 $END
