&CONTROL
   calculation     = 'scf'
   outdir          = 'pwscf_output'
   prefix          = 'pwscf'
   pseudo_dir      = './'
   tprnfor         = .true.
   tstress         = .true.
   verbosity       = 'high'
/

&SYSTEM
   ecutwfc         = 75
   ibrav           = 0
   input_dft       = 'lda'
   nat             = 15
   nspin           = 1
   ntyp            = 1
   tot_charge      = 0
/

&ELECTRONS
   conv_thr        = 1e-07
/


ATOMIC_SPECIES 
   C  12.011 C.BFD.upf

ATOMIC_POSITIONS bohr
   C       -0.08993686      -0.08993686      -0.08993686 
   C        3.46309801       3.46309801      -0.08993686 
   C        5.05974172       5.05974172       1.70077347 
   C       -0.08993686       3.46309801       3.46309801 
   C        1.70077347       5.05974172       5.05974172 
   C        3.37014984       6.74933360       3.37014983 
   C        5.05974172       8.41870996       5.05974172 
   C        3.46309801      -0.08993686       3.46309801 
   C        5.05974172       1.70077347       5.05974172 
   C        6.74933360       3.37014984       3.37014984 
   C        8.41870996       5.05974172       5.05974172 
   C        3.37014984       3.37014984       6.74933360 
   C        5.05974172       5.05974172       8.41870996 
   C        6.74933360       6.74933360       6.74933360 
   C        8.43290286       8.43290286       8.43290286 

K_POINTS automatic
   2 2 2  0 0 0 

CELL_PARAMETERS bohr
         6.74632229       6.74632229       0.00000000 
        -0.00000000       6.74632229       6.74632229 
         6.74632229      -0.00000000       6.74632229 


