/** \page solid_luke QMC workflow for solids

\author Luke Shulenburger

This tutorial session will focus on how to perform accurate QMC calculations on
solids using pwscf for creating trial wavefunctions and QMCPACK for the QMC.  The
concepts and tools needed will be introduced in the context of calculating a pressure
versus volume curve for carbon in the diamond structure.  Due to the limited
computational resources available for this tutorial, many of these calculations will
be under converged, but complete results will be provided in the course of this
document.

Please note that this tutorial will be highly dependent on the setup-qmc.pl tool for
generating pwscf and QMCPACK input files.  This tool has been
preconfigured and placed in your path.  In general you will need edit the
configuration file setup-qmc-conf.pm located in the utils directory of QMCPACK to
specify the locations of several tools used throughout.

The general outline of the tutorial is follows.  The necessary input DFT calculations
for a QMC simulation will be discussed.  Then a wavefunction will be generated from a
DFT calculation for diamond.  Next, VMC will be used to optimize Jastrow factors for
the many body wavefunction.  Then the proper convergence of the b-spline representation
of the DFT wavefunction will be examined.  With that in hand, DMC calculations will
be discussed including the convergence of the time step.  Finally, the finite size
errors inherent in these calculations will be confronted.

\section initial-dft Initial DFT Calculations
The first step in performing quantum Monte Carlo calculations is to perform a DFT
calculation on the same system.  This is necessary to provide the trial wavefunction
that is necessary both for improving the efficiency of the QMC calculation
(importance sampling) and for mitigating the sign problem.  In this case we will be
focusing on diamond, so we will start with a pwscf input file as given below:
\code
 &control
    calculation='scf'
    restart_mode='from_scratch',
    tstress = .true.
    prefix='diamond',
    pseudo_dir = './',
    outdir='out'
    disk_io='low'
    wf_collect=.true.
 /
 &system
    ibrav=2, celldm(1) = 6.700, nat=  2, ntyp= 1,
    nspin=1,
    degauss=0.001,
    smearing='mp',
    occupations='smearing',
    ecutwfc =210
    ecutrho =840
 /
 &electrons
    conv_thr =  1.0d-10
    mixing_beta = 0.7
 /
ATOMIC_SPECIES
 C  12.0107  C.ncpp
ATOMIC_POSITIONS {crystal}
 C 0.00 0.00 0.00
 C 0.25 0.25 0.25
K_POINTS AUTOMATIC
8 8 8 1 1 1
\endcode

As the goal of the calculation is to produce an extremely accurate DFT wavefunction, 
ecutwfc and the k-points should be converged to a very high degree.  For this
purpose, it is often better to monitor convergence of the stresses (which depend
linearly on the wavefunctions) than on the total energy which improves quadratically
with the quality of the wavefunctions.

In each of your home directories, there should be a directory called diamond.  
This input file is included in the diamond directory and is called diamond-scf.in.
Create a directory for the output file (mkdir out) and then run pwscf with the following command:
\code
pw.x < diamond-scf.in > diamond-scf.out
\endcode

\subsection pp Pseudopotentials
In the calculation on diamond, note that the cutoff is higher than is 
typical in modern electronic structure codes.  This is due to two factors.  The first
is that the treatment of nonlocal pseudopotentials in QMC presently requires the
use of norm conserving pseudopotentials rather than the PAW or ultrasoft formalisms
which are now in use.  The second reason for the high cutoff is due to the particular
construction of this pseudopotential.  It was created using opium (http://opium.sourceforge.net)
with the only constraint in mind that it accurately reproduces the all electron
results within LDA.  This is often a practical way to generate pseudopotentials for 
QMC as the increased plane wave cutoffs do not result in increased run time within 
QMC and the DFT calculation is many orders of magnitude faster than the QMC.  The only 
exception to this rule is when there is difficulty fitting the wavefunction
into the memory of the computer during the QMC.  This will be discussed more thoroughly
in section \ref spline-wfns.

It may also be practical to use pseudopotentials available in various libraries
distributed with DFT codes.  The ppconvert tool which is a part of the qmcutils
distribution can convert many of these to the xml format which QMCPACK understands.
For the purpose of this tutorial, any norm conserving pseudopotential in UPF or NCPP
format may be used for the DFT part of the QMC calculations. 

\section spline-wfns Creating and testing wavefunctions for QMCPACK
The plane wave representation for the wavefunction used in pwscf is not a good choice
for quantum Monte Carlo.  This is because the largest computational effort involved in
QMC is evaluating the trial wavefunction and related quantities when an electron is moved
from \b r  to \b r'.  With a plane wave basis, this requires evaluating all
N of the basis functions for every move.

Rather than using these plane waves, QMCPACK calculations are typically performed using
a b-spline representation of the wavefunction.  Practically speaking, this involves 
extracting the plane waves from a pwscf calculation and then choosing a regular grid
upon which to construct the spline representation.  In this section you will construct
the wavefunction from pwscf calculations and test that the splines are sufficiently
dense within QMCPACK.

\subsection kext Extracting Wavefunctions at Particular k-points

There is a direct mapping from k-points in DFT calculations to non-periodic boundary
conditions in quantum Monte Carlo (essential for twist averaging).  For this reason
and for others detailed in section @ref supercells "supercells", it is important to be able
to extract the wavefunction at arbitrary k-points in the first Brillouin Zone of the system.
setup-qmc.pl simplifies this process by creating input files for pwscf to get the 
wavefunction at any k-point using the charge density from the converged DFT calculation
found in section @ref initial-dft.  Following this pwscf calculation, the tool 
pw2qmcpack.x should be run to generate an hdf file which is then prepared for QMCPACK
using wfconvert.  Generate these files in the directory where pwscf has already been
run by issuing the command
\code
setup-qmc.pl --genwfn --kpoint 0  0  0 diamond-scf.in 
\endcode
This will generate an input file for pwscf called be-nscf.in.  This input file should
be identical to be-scf.in except for a few critical points.  Instead of a scf calculation,
the calculation will now be nscf so as to avoid changing the charge density from the
previously converged calculation.  Secondly, the wavefunction will be collected by 
a single process using wf\_collect = .true.  This should allow the mpi version of quantum
espresso to be used where available.  All symmetry is also turned off in order to 
avoid removing any k-points.  Finally, the last section of the file: K\_POINTS is changed
to include only the point ``0 0 0''.

Run this calculation with the following command:
\code
pw.x < diamond-nscf.in > diamond-nscf.out
\endcode

The wavefunction can now be extracted to hdf format using the pw2qmcpack.x tool that
is included with the modified version of quantum espresso available from: (qmc-tools).
All that is needed for this is a simple input file that tells pw2qmcpack.x where the
wavefunctions from the pwscf calculation are and whether or not to generate the b-splines
directly.  Invoke pw2qmcpack.x as follows:
\code
pw2qmcpack.x < diamond-pw2x.in > diamond-pw2x.out
\endcode

Now this is converted to the eshdf format used by QMCPACK with the following command
\code
wfconvert --nospline --eshdf diamond.h5 out/diamond.pwscf.h5 >& diamond-wfconvert.out
\endcode
The nospline argument keeps the wavefunction in reciprocal space, which will be
useful in convergence testing below, but can significantly increase the setup time in
QMCPACK for large systems.  wfconvert can also be invoked with the argument --factor xx
which will generate the real space b-splines directory with a given mesh spacing.


\section opts Optimizing Jastrow Factors within QMC
The next step in performing QMC calculations of diamond is to produce as accurate a
many body wavefunction as possible.  Although many forms have been proposed for many body 
wavefunctions of periodic systems, we will stick to the standard Slater-Jastrow form whereby 
the Slater determinant obtained from DFT is multiplied by correlation factors which 
explicitly account for the approach of electrons to other electrons and of electrons 
to the ions in the system.  A very general form of these Jastrow factors which is used 
in QMCPACK is as follows
\f[
J(r-r') = e^{f(\left|r-r'\right|)} \nonumber
\f]
where the function \f$f(x)\f$ is represented as a one dimensional spline.

It is not possible to optimize this function analytically, so we will optimize its form 
using variational Monte Carlo.  There are several different formalisms for doing this 
optimization.  Probably the simplest to understand conceptually is the variance minimization 
approach.  This technique takes advantage of the zero variance principle whereby the 
variance of a VMC simulation with any many body eigenstate as the wavefunction will 
be zero.  Knowing this, VMC simulations are performed and the parameters which influence 
the Jastrow factors (in this case spline values) are varied in order to reduce the 
variance of the simulation.

Recently, successful techniques have been devised which also take into account the 
variational nature of VMC and work to minimize the total energy calculated by varying 
the parameters in the wavefunction.  We will use one such approach to optimize Jastrow 
factors for our aluminum example.  We will use setup-qmc.pl to generate a 
QMCPACK input file.  Invoke that script with the following command:
\code
setup-qmc.pl --optwvfcn --splfactor 1.0 --wvfcnfile diamond.h5 \
   --vmctimestep 0.8 --vmcblocks 512 --vmcwalkers 128 --vmcsteps 5 \
   --optsamples 32768 --optloops 8 --onebodysplinepts 4 \
   --twobodysplinepts 4 diamond-scf.in
\endcode

To run these calculations, it is necessary to have some understanding of how parallelism
works in QMCPACK.  QMCPACK takes advantage of distributed memory parallelism (such as
between nodes of a supercomputer) via MPI and shared memory parallelism (such as within
a node) using OpenMP.  On modern supercomputers, this can result in large benefits because
the communication is reduced linearly with the number of OpenMP threads used per node.
In this case we will have logged directly into the nodes of the supercomputer and will
run QMCPACK using only OpenMP parallelism.  To do this, 
set the number of threads to 4 using the following command
\code
export OMP_NUM_THREADS=4
\endcode
Now QMCPACK should be invoked to find the optimal Jastrow factor.  First move to the 
directory optimization and invoke QMCPACK as follows
\code
qmcapp opt-diamond.xml >& opt-diamond.out &
\endcode
Hybrid parallelism can also be used by invoking qmcapp via the standard mpi process
on your supercomputer taking into account that the number of processes requested should
not be the total number of CPU cores to use, but should likely correspond to either
the number of processors on the nodes or to the number of nodes.  As an example, to run
QMCPACK on a computer with 4 nodes which each have 8 processors, commands similar to the
following would be used:
\code
export OMP_NUM_THREADS=8
mpirun -np 4 qmcapp opt-diamond.xml >& opt-diamond.out &
\endcode
While QMCPACK is optimizing the wavefunction, take some time to examine the input file
that was generated by setup-qmc.pl:
\code
<?xml version="1.0"?>
<simulation>
  <project id="opt-diamond" series="1">
    <application name="qmcapp" role="molecu" class="serial" version="0.2">
      Optimization of jastrows for diamond
    </application>
  </project>

  <random seed="49154"/>
  <qmcsystem>
  <simulationcell>
    <parameter name="lattice">
      -3.35   0   3.35
      0   3.35   3.35
      -3.35   3.35   0
      </parameter>
      <parameter name="bconds">p p p</parameter>
      <parameter name="LR_dim_cutoff">15</parameter>
  </simulationcell>
  <particleset name="i" size="2">
    <group name="C">
      <parameter name="charge">4.000000</parameter>
      <parameter name="valence">4.000000</parameter>
      <parameter name="atomicnumber">6.000000</parameter>
    </group>
    <attrib name="position" datatype="posArray" condition="1">
    0.00   0.00   0.00
    0.25   0.25   0.25
    </attrib>
    <attrib name="ionid" datatype="stringArray">
      C  C  
    </attrib>
  </particleset>
  <particleset name="e" random="yes" randomsrc="i">
    <group name="u" size="4">
      <parameter name="charge">-1</parameter>
    </group>
    <group name="d" size="4">
      <parameter name="charge">-1</parameter>
    </group>
  </particleset>
  </qmcsystem>
  <wavefunction name="psi0" target="e">
    <determinantset type="einspline" href="../diamond.h5" tilematrix="1 0 0 0 1 0 0 0 1" 
                                            twistnum="0" gpu="yes" meshfactor="1.0">
      <basisset/>
      <slaterdeterminant>
        <determinant id="updet" size="4" ref="updet">
          <occupation mode="ground" spindataset="0">
          </occupation>
        </determinant>
        <determinant id="downdet" size="4" ref="downdet">
          <occupation mode="ground" spindataset="0">
          </occupation>
        </determinant>
      </slaterdeterminant>
    </determinantset>
    <jastrow name="J2" type="Two-Body" function="Bspline" print="yes">
      <correlation speciesA="u" speciesB="u" size="4">
        <coefficients id="uu" type="Array">  0  0  0  0  </coefficients>
      </correlation>
      <correlation speciesA="u" speciesB="d" size="4">
        <coefficients id="ud" type="Array">  0  0  0  0  </coefficients>
      </correlation>
    </jastrow>
    <jastrow name="J1" type="One-Body" function="Bspline" print="yes" source="i">
      <correlation elementType="C" cusp="0.0" size="4">
        <coefficients id="C" type="Array"> 0  0  0  0  </coefficients>
      </correlation>
    </jastrow>
  </wavefunction>
  <hamiltonian name="h0" type="generic" target="e">
    <pairpot type="pseudo" name="PseudoPot" source="i" wavefunction="psi0" format="xml">
      <pseudo elementType="C" href="../C.xml"/>
    </pairpot>
    <constant name="IonIon" type="coulomb" source="i" target="i"/>
    <pairpot name="MPC" type="MPC" source="e" target="e" ecut="60.0" physical="false"/>
    <pairpot name="ElecElec" type="coulomb" source="e" target="e" physical="true"/>
    <estimator name="KEcorr" type="chiesa" source="e" psi="psi0"/>
  </hamiltonian>

<loop max="16">
  <qmc method="linear" move="pbyp" checkpoint="-1" gpu="yes">
    <parameter name="blocks">   512 </parameter>
    <parameter name="warmupsteps"> 0 </parameter>
    <parameter name="steps">    5 </parameter>
    <parameter name="timestep">  0.8  </parameter>
    <parameter name="walkers">  128 </parameter>
    <parameter name="samples">  32768  </parameter>
    <parameter name="minwalkers">  0.5 </parameter>
    <parameter name="maxWeight">    1e9 </parameter>
    <parameter name="useDrift">  yes </parameter>
    <estimator name="LocalEnergy" hdf5="no"/>
    <cost name="energy">                   0.05 </cost>
    <cost name="unreweightedvariance">     0.0 </cost>
    <cost name="reweightedvariance">       0.95 </cost>
    <parameter name="MinMethod">quartic</parameter>
    <parameter name="beta">  0.05 </parameter>
    <parameter name="exp0"> -16 </parameter>
    <parameter name="nonlocalpp">no</parameter>
    <parameter name="useBuffer">no</parameter>
    <parameter name="bigchange">5.0</parameter>
    <parameter name="alloweddifference"> 1.0e-4 </parameter>
    <parameter name="stepsize">4.0e-1</parameter>
    <parameter name="stabilizerscale">  1.0 </parameter>
    <parameter name="nstabilizers"> 3 </parameter>
    <parameter name="max_its"> 1 </parameter>
  </qmc>
</loop>
</simulation>
\endcode

The geometry of the calculation is read from the pwscf input file and the unit cell is
placed in the lattice tag.  The bconds tag can be changed so that slabs or wires can be 
handled natively without any spurious interactions from images, to do this, simply change
p (periodic) for a given boundary condition to n (non-periodic).  Following this, particlesets
are specified giving information about the electrons and ions in the problem.

The determinantset controls how the wavefunction is represented in the problem.  Here type=''einspline''
specifies that we are using a b-spline basis set and meshfactor=''1.0'' specifies a mesh spacing.  
The meshfactor is the spacing in terms of the density of the real space points corresponding
to the plane waves used in the DFT calculation.  A meshfactor of 0.5 will give the same number
of real space points as plane waves in the cell.  Other notable sections include the Jastrow
factor (which in this case starts as being represented by a 4 point spline that is all 0), and
the optimization block at the end of the file.

In general each QMCPACK input file will consist of some header information followed by a
particleset, a wavefunction, a Hamiltonian and then any number of qmc sections which
give the actions for QMCPACK to perform.  Here we use a loop construct to repeat the optimization
several times because the optimization needs to proceed somewhat self-consistently.  At this
point, take a minute to familiarize yourself with the QMCPACK users guide, which will provide
a much more thorough explanation of how the input file is structured and what each element means.

This optimization will take about 20 minutes to run on 4 cores. However, the calculation will 
continuously write to files named opt-diamond.s###.scalar.dat,
with one for each iteration of the VMC optimization.  There is another script, OptProgress.pl
which can be used to monitor the progress of the optimization.  The syntax to invoke it is
as follows:
\code
OptProgress.pl opt-diamond.s001.scalar.dat
\endcode
When the calculation is finished, this will produce plot similar to Fig.\ref OptFig below.

\anchor OptFig
\image html Opt-conv.png "Total energy vs iteration number for optimization of Jastrow factors in diamond."
\image latex Opt-conv.png "Total energy vs iteration number for optimization of Jastrow factors in diamond."

It is common for this optimization to proceed over several steps and there is no
guarantee that the final optimization cycle will produce the best wavefunction (as 
measured by having the lowest energy and smallest variance).  setup-qmc.pl will
always analyze this directory to find the cycle that produced the best wavefunction
and will include this in future calculations.

\subsection spline_cov Testing Convergence of the Splines in QMCPACK
Now that the wavefunctions have been generated the proper density for the b-splines
should be found.  In the previous section we used a rather large mesh given by
meshfactor=''1.0'' in the determinantset.  This is typically larger than is necessary
and as the memory needed to store the wavefunction goes as the cube of the meshfactor,
this can cause calculations to be intractable.

In order to determine the smallest appropriate meshfactor, we will perform variational
Monte Carlo calculations using the best Jastrow factor determined above.  The quantities
to monitor are the total energy which should decrease until saturating at large values
of meshfactor, the variance which should decrease as meshfactor increases and the kinetic
energy which depends only on the shape of the trial wavefunction including Jastrow factor.

To perform this convergence test, change directory back to where
diamond-scf.in is located and generate appropriate input files using setup-qmc.pl
with the following command
\code
setup-qmc.pl --splconv --wvfcnfile diamond.h5 --withjas \
   --vmcblocks 500 --vmcwalkers 512 --vmcsteps 2 --vmctimestep 1.0 \
   --minfactor 0.4 --maxfactor 0.8 --factorinc 0.1 diamond-scf.in
\endcode

This will generate input files with names like diamond-f0.40.xml in the directory bsplineConv.
Run each of these calculations by changing to the directory bsplineConv and invoking qmcapp
for each one of the input files in turn:

\code
qmcapp diamond-f0.40.xml >& diamond-f0.40.out
qmcapp diamond-f0.50.xml >& diamond-f0.50.out
qmcapp diamond-f0.60.xml >& diamond-f0.60.out
qmcapp diamond-f0.70.xml >& diamond-f0.70.out
qmcapp diamond-f0.80.xml >& diamond-f0.80.out
\endcode
When you have finished this (it should take several minutes) you can monitor the convergence
of the results using the PlotBsplConv.pl utility distributed with QMCPACK:
\code
PlotBsplConv.pl diamond-f0.40.s001.scalar.dat 
\endcode
Which will generate a plot which looks like Fig. \ref SplConvFig.  The convergence
of the total energy can be somewhat misleading as the quadratic convergence of the
energy with the wavefunction can mask differences in the wavefunction.  The variance
of the local energy is a much more reliable metric of the spline's convergence.  It
requires many fewer samples to converge and is a direct measure of how the spline
factor will influence the cost of the DMC calculations to come.  The number of steps
required to obtain a particular statistical error in a DMC calculation goes linearly
with the variance.  In this case we see convergence with a meshfactor of roughly 0.7,
which we will use in our future calculations.

\anchor SplConvFig
\image html SplineConv.png "Total, kinetic energy and variance of diamond as a function of b-spline spacing from VMC"
\image latex SplineConv.png "Total, kinetic energy and variance of diamond as a function of b-spline spacing from VMC"

\section dmc_s Performing DMC Calculations
Diffusion Monte Carlo (DMC) calculations will consume the vast majority of the CPU
cycles in your QMC projects.  This method differs from VMC in that it samples the
observables you specify for the lowest energy wavefunction consistent with the many
body nodes that you provide in your trial wavefunction.  

In performing accurate DMC calculations, it is important to converge several 
technical parameters.  The first of these is the average population of walkers in
the calculation.  In general this needs to be large so that fluctuations in the
population do not unduly influence the results of the calculations.  For relatively
good trial wavefunctions like the one used here, 1000 walkers should be more than
sufficient, however for wavefunctions with larger variance, like all electron wavefunctions
of first row solids, this may need to be 10's of thousands.

The second technical parameter that will need to be converged is the size of the
time step which is used in the DMC propagation.  This controls the accuracy of the 
Green's function which is used to propagate the walkers.  A rule of thumb is that
the acceptance ratio upon moving the walkers should be around 99%.  However,
this should be precisely converged, a task which can again be accomplished by the 
combination of setup-qmc.pl and QMCPACK.  Here is the input line for setup-qmc.pl

\code
setup-qmc.pl --convdmctstep --wvfcnfile diamond.h5 --splfactor 0.7 \
   --vmcblocks 64 --walkers 1024 --vmcwarmupsteps 20 --vmctimestep 0.8 \
   --vmcsteps 2 --dmcsteps 5 --dmcblocks 400 --dmcwarmupsteps 200 \
   --mindmctstep 0.01 --maxdmctstep 0.04 --dmctstepinc 0.01 diamond-scf.in
\endcode

The input file this produces will start with a short VMC calculation to produce
a population of walkers more nearly distributed according to the trial wavefunction.
After that a series of DMC calculations are done with successively shorter time steps.
The first calculation (series 002) starts with a time step of 0.04, followed by
time steps of 0.03, 0.02 and 0.01.  In order to analyze the results of these
calculations, it is necessary to understand how DMC calculations are analyzed.
The PlotDMC.pl script can show both the trace of the local energy as well as the 
population at each time step.  Look at the first 1000 steps of the first DMC calculation:

\code
PlotDMC.pl diamond-dmcTsteps.s002.dmc.dat 1 1000
\endcode
This should produce a plot like the one in figure \ref dmc-transient-figure

\anchor dmc-transient-figure
\image html DMC-startcalc.png "First 1000 steps of DMC calculation with time step of 0.04"
\image latex DMC-startcalc.png "First 1000 steps of DMC calculation with time step of 0.04"

At the beginning of the local energy plot, there is a transient as the population of
walkers equilibrates from sampling \f$\Psi_T^2\f$ to the mixed distribution \f$\Psi_T \Phi\f$.
After this transient, the local energy sampled should be approximately Gaussian (note
recent work by R. Hood which suggests it is not exactly Gaussian) and the population
should also be Gaussian.  Any large deviations from this suggest that the sampling may 
not be ergodic.  Now look at the full calculation with the transient removed:
\code
PlotDMC.pl diamond-dmcTsteps.s002.dmc.dat 200
\endcode
This produces a figure like \anchor dmc-fullfigure
\image html FullDMCPlot.png "DMC calculation with time step of 0.04, first 200 steps removed to avoid transient"
\image latex FullDMCPlot.png "DMC calculation with time step of 0.04, first 200 steps removed to avoid transient"


The spikes in the population histogram notwithstanding, this calculation appears to
be producing reasonably good statistics.  All of the various quantities which are 
reported in the scalar.dat files may now be examined using the energy.pl tool:
\code
energy.pl diamond-dmcTsteps.s002.scalar.dat 50
\endcode
Note that the first 50 blocks have been thrown out to avoid the transient (each block
contains 5 steps so this is slightly more than in the plots above).  This produces the
output below.
\code
LocalEnergy           =         -10.55142 +/-          0.00090
Variance              =             0.533 +/-            0.019
LocalPotential        =          -22.3342 +/-           0.0064
Kinetic               =           11.7828 +/-           0.0066
LocalECP              =           -1.1639 +/-           0.0028
NonLocalECP           =           -5.7078 +/-           0.0081
IonIon                =       -12.8639956 +/-        0.0000029
ElecElec              =           -2.5984 +/-           0.0018
MPC                   =           -2.3339 +/-           0.0020
KEcorr                =      0.0355832891 +/-     0.0000000083
BlockWeight           =              5122 +/-               12
BlockCPU              =           0.25460 +/-          0.00049
AcceptRatio           =          0.970214 +/-         0.000033
Efficiency            =         20116.754 +/-            0.000
--------------------------------------------------------------
Corrected Energy      =         -10.25132 +/-          0.00090
\endcode
All energies are given in Hartrees and the BlockCPU is given in seconds.  Serial
correlations are accounted for by using the blocking technique.  This tool is used
extensively by the other analysis tools.

With those preliminaries in hand, we will use the PlotTstepConv.pl tool to analyze
the convergence of the DMC calculations with respect to the time step.  Run the
tool as follows:
\code
PlotTstepConv.pl diamond-dmcTsteps.xml 50
\endcode
Note that rather than actual data files, this tool directly analyzes the QMCPACK
input file to determine the data to plot.  The output of the tool should be
similar to figure \anchor dmc-tstep-conv

\image html DMCTstepConv.png "Total DMC energy as a function of time step for diamond"
\image latex DMCTstepConv.png "Total DMC energy as a function of time step for diamond"

The trend line that is drawn may be wildly inaccurate especially if large time steps
are included.  In this case, there appears to be a very weak dependence on the 
time step and a time step of 0.02 appears to be a good candidate for future DMC
calculations.

\subsection prod Production Calculations
These calculations have now established a baseline for future DMC calculations on
similar systems.  Specifically parameters for optimization, the spline factor, and
the DMC time step have been found.  setup-qmc.pl can now be used to perform an entire
calculation from start to finish.  If calculating an equation of state, it would be
prudent to repeat these calculations for a different regime (in this case for a smaller
lattice constant to get a high pressure condition).  Then the larger of the two 
spline factors and the smaller of the two time steps could be used for calculations at
all other lattice constants of interest.

The syntax for this in setup-qmc.pl is:
\code
setup-qmc.pl --production --splfactor 0.7 --wvfcnfile diamond.h5 \
   --vmctimestep 0.8 --vmcblocks 64 --walkers 512 --vmcsteps 5 \
   --optsamples 32768 --optloops 16 --onebodysplinepts 4 --twobodysplinepts 4 \
   --dmcsteps 5 --dmcblocks 500 --dmcwarmupsteps 200 \
   --dmctimestep 0.02 diamond-scf.in
\endcode

This input file will produce a sequence of 16 optimization files.  Then the 17th
file will be a VMC calculation to equilibrate a population of 1024 walkers
followed by a DMC calculation.  All of this will be placed in the directory
qmc-production.  There are some drawbacks in using this method which will be
discussed below.  Principally, the the wavefunction used for the DMC will be 
taken from the last optimization cycle and may not be the one with the lowest
energy.  Other drawbacks will be discussed below.  The author recommends that
for most applications, it is more prudent to perform the optimization and DMC
calculations separately.

\section fs_s Controlling Finite Size Effects
If one were to follow the above procedure and produce a curve of energy as a function