&inputpp
   outdir='.'
   prefix='LiH-x'
   write_psir=.false.
/
