&CONTROL
   calculation     = 'scf'
   disk_io         = 'low'
   outdir          = 'pwscf_output'
   prefix          = 'pwscf'
   pseudo_dir      = './'
   restart_mode    = 'from_scratch'
   tprnfor         = .true.
   tstress         = .true.
   verbosity       = 'high'
   wf_collect      = .true.
/

&SYSTEM
   !celldm(1)       = 1.0
   degauss         = 0.001
   ecutrho         = 400
   ecutwfc         = 50
   ibrav           = 0
   nat             = 3
   nosym           = .false.
   ntyp            = 2
   occupations     = 'smearing'
   smearing        = 'fermi-dirac'
   tot_charge      = 0
/

&ELECTRONS
   conv_thr        = 1e-05
   diagonalization = 'david'
   electron_maxstep = 1000
   mixing_beta     = 0.7
   mixing_mode     = 'local-TF'
/


ATOMIC_SPECIES 
   H  1.00794 H.BFD.upf
   O  15.999 O.BFD.upf

ATOMIC_POSITIONS bohr
   O        4.05580089       4.05580089       3.00901473 
   H        4.05580089       1.35193363       5.10258705 
   H        4.05580089       6.75966815       5.10258705 

K_POINTS automatic
   1 1 1  0 0 0 

CELL_PARAMETERS bohr
         8.11160178       0.00000000       0.00000000 
         0.00000000       8.11160178       0.00000000 
         0.00000000       0.00000000       8.11160178 


