 $CONTRL SCFTYP=MCSCF RUNTYP=ENERGY MULT=1
   ISPHER=1 EXETYP=RUN COORD=UNIQUE MAXIT=200 ECP=READ $END
 $SYSTEM MEMORY=150000000 $END
 $SCF DIRSCF=.TRUE. $END
 $GUESS GUESS=MOREAD NORB=57 $END
 $DET GROUP=C2v NELS=8 NACT=8 PRTTOL=0.001 $END
 $MCSCF MAXIT=200 $END
 $ECP
O-QMC GEN 2 1
 3
 6.00000000 1 9.29793903
 55.78763416 3 8.86492204
 -38.81978498 2 8.62925665
 1
 38.41914135 2 8.71924452
H-QMC  GEN 0 0
3
1.00000000 1 4.47692410
4.47692410 3 2.97636451
-4.32112340 2 3.01841596
H-QMC
 $END
 $DATA
H2O
CNV      2

O           8.0      0.0000000000      0.0000000000      0.0000000000
   S       9
     1              0.1253460000  0.05574100
     2              0.2680220000  0.30484800
     3              0.5730980000  0.45375200
     4              1.2254290000  0.29592600
     5              2.6202770000  0.01956700
     6              5.6028180000 -0.12862700
     7             11.9802450000  0.01202400
     8             25.6168010000  0.00040700
     9             54.7752160000 -0.00007600
   S       1
     1              1.6866330000  1.00000000
   S       1
     1              0.2379970000  1.00000000
   P       9
     1              0.0835980000  0.04495800
     2              0.1670170000  0.15017500
     3              0.3336730000  0.25599900
     4              0.6666270000  0.28187900
     5              1.3318160000  0.24283500
     6              2.6607610000  0.16113400
     7              5.3157850000  0.08230800
     8             10.6201080000  0.03989900
     9             21.2173180000  0.00467900
   P       1
     1              0.1846960000  1.00000000
   P       1
     1              0.6006210000  1.00000000
   D       1
     1              0.6693400000  1.00000000
   D       1
     1              2.4042780000  1.00000000
   F       1
     1              1.4231040000  1.00000000

H           1.0      0.0000000000      0.7571600000      0.5862600000
s 6 1.00
1 6.359201     -0.004943
2 3.546637     0.049579
3 1.493442     0.037176
4 0.551948     0.287908
5 0.207203     0.009543
6 0.079234     0.770084
s 6 1.00
1 6.359201     -0.016672
2 3.546637     -0.005774
3 1.493442     -0.227982
4 0.551948     -0.285652
5 0.207203     -1.071579
6 0.079234     1.423767
s 6 1.00
1 6.359201     -0.018886
2 3.546637     -0.058854
3 1.493442     -0.556988
4 0.551948     -1.084022
5 0.207203     2.721525
6 0.079234     -1.458091
s 1 1.00
1 0.102700     1.000000
p 1 1.00
1 1.407000     1.000000
p 1 1.00
1 0.388000     1.000000
d 1 1.00
1 1.057000     1.000000

 $END
--- OPTIMIZED MCSCF MO-S --- GENERATED AT Wed Jul  9 17:35:49 2014
H2O
E(MCSCF)=      -17.0516365031, E(NUC)=        6.9807632466
 $VEC
 1  1 8.57619597E-01-6.90829851E-03-1.05123411E-01 0.00000000E+00 0.00000000E+00
 1  2 1.28903734E-01 0.00000000E+00 0.00000000E+00-4.45301130E-02 0.00000000E+00
 1  3 0.00000000E+00-2.15407032E-02-2.67284808E-04 1.41079198E-03-1.14350717E-03
 1  4 0.00000000E+00 0.00000000E+00 0.00000000E+00-4.33109339E-03 2.64908548E-03
 1  5 1.68200790E-03 0.00000000E+00 0.00000000E+00 0.00000000E+00 0.00000000E+00
 1  6 0.00000000E+00-1.68007579E-03 0.00000000E+00-1.88206849E-03 0.00000000E+00
 1  7 4.13612670E-03 0.00000000E+00 0.00000000E+00 0.00000000E+00 1.54326818E-01
 1  8 4.42985220E-02-8.59711814E-04 0.00000000E+00 2.61638415E-02-1.57005831E-02
 1  9 0.00000000E+00 1.19368570E-02-8.28981781E-03-3.54078414E-03 4.36537978E-03
 1 10-8.24595637E-04 0.00000000E+00 0.00000000E+00-5.19437296E-03 1.54326818E-01
 1 11 4.42985220E-02-8.59711814E-04 0.00000000E+00-2.61638415E-02-1.57005831E-02
 1 12 0.00000000E+00-1.19368570E-02-8.28981781E-03-3.54078414E-03 4.36537978E-03
 1 13-8.24595637E-04 0.00000000E+00 0.00000000E+00 5.19437296E-03
 2  1 0.00000000E+00 0.00000000E+00 0.00000000E+00 0.00000000E+00 7.59245574E-01
 2  2 0.00000000E+00 0.00000000E+00-1.20989095E-01 0.00000000E+00 0.00000000E+00
 2  3-4.11567153E-02 0.00000000E+00 0.00000000E+00 0.00000000E+00 0.00000000E+00
 2  4 0.00000000E+00 0.00000000E+00 1.72389244E-02 0.00000000E+00 0.00000000E+00
 2  5 0.00000000E+00 0.00000000E+00 0.00000000E+00 1.22479735E-02 0.00000000E+00
 2  6 1.70540843E-03 0.00000000E+00-4.99996885E-03 0.00000000E+00 0.00000000E+00
 2  7 0.00000000E+00 0.00000000E+00 2.71192334E-03 0.00000000E+00-2.58372299E-01
 2  8-1.95393700E-01 1.00369454E-02 0.00000000E+00-1.86892180E-02 2.65503319E-02
 2  9 0.00000000E+00-2.97278928E-02 1.50119243E-02 4.56051456E-03-1.63109574E-03
 2 10-2.92941882E-03 0.00000000E+00 0.00000000E+00 7.56916757E-03 2.58372299E-01
 2 11 1.95393700E-01-1.00369454E-02 0.00000000E+00-1.86892180E-02-2.65503319E-02
 2 12 0.00000000E+00-2.97278928E-02-1.50119243E-02-4.56051456E-03 1.63109574E-03
 2 13 2.92941882E-03 0.00000000E+00 0.00000000E+00 7.56916757E-03
 3  1-3.08101140E-01-6.13407666E-03-8.25184680E-02 0.00000000E+00 0.00000000E+00
 3  2 8.28933512E-01 0.00000000E+00 0.00000000E+00-1.49803238E-02 0.00000000E+00
 3  3 0.00000000E+00-1.85396055E-02-1.48585785E-02-1.88868106E-03 1.67472595E-02
 3  4 0.00000000E+00 0.00000000E+00 0.00000000E+00-5.05755192E-03 1.74817970E-04
 3  5 4.88273395E-03 0.00000000E+00 0.00000000E+00 0.00000000E+00 0.00000000E+00
 3  6 0.00000000E+00-9.61954380E-04 0.00000000E+00-4.16391658E-03 0.00000000E+00
 3  7 5.45451381E-03 0.00000000E+00 0.00000000E+00 0.00000000E+00 1.56799609E-01
 3  8 5.82838422E-02-6.46315050E-03 0.00000000E+00 1.80217350E-02 9.75613832E-03
 3  9 0.00000000E+00-2.53837150E-03 3.06569647E-02-1.72933375E-03 4.80425368E-03
 3 10-3.07491993E-03 0.00000000E+00 0.00000000E+00 1.14818843E-03 1.56799609E-01
 3 11 5.82838422E-02-6.46315050E-03 0.00000000E+00-1.80217350E-02 9.75613832E-03
 3 12 0.00000000E+00 2.53837150E-03 3.06569647E-02-1.72933375E-03 4.80425368E-03
 3 13-3.07491993E-03 0.00000000E+00 0.00000000E+00-1.14818843E-03
 4  1 0.00000000E+00 0.00000000E+00 0.00000000E+00 9.35393065E-01 0.00000000E+00
 4  2 0.00000000E+00 8.74301898E-03 0.00000000E+00 0.00000000E+00 7.21345170E-03
 4  3 0.00000000E+00 0.00000000E+00 0.00000000E+00 0.00000000E+00 0.00000000E+00
 4  4 0.00000000E+00 1.66605631E-02 0.00000000E+00 0.00000000E+00 0.00000000E+00
 4  5 0.00000000E+00 0.00000000E+00 5.00141092E-03 0.00000000E+00-3.57706824E-03
 4  6 0.00000000E+00 0.00000000E+00 0.00000000E+00 0.00000000E+00 3.29946118E-03
 4  7 0.00000000E+00 1.49967947E-03 0.00000000E+00 0.00000000E+00 0.00000000E+00
 4  8 0.00000000E+00 0.00000000E+00 2.52464549E-02 0.00000000E+00 0.00000000E+00
 4  9 3.14133061E-02 0.00000000E+00 0.00000000E+00 0.00000000E+00 0.00000000E+00
 4 10 0.00000000E+00 5.23761177E-03-3.45389255E-03 0.00000000E+00 0.00000000E+00
 4 11 0.00000000E+00 0.00000000E+00 2.52464549E-02 0.00000000E+00 0.00000000E+00
 4 12 3.14133061E-02 0.00000000E+00 0.00000000E+00 0.00000000E+00 0.00000000E+00
 4 13 0.00000000E+00-5.23761177E-03-3.45389255E-03 0.00000000E+00
 5  1 7.47810158E-01 1.63210612E-01-4.92985533E-01 0.00000000E+00 0.00000000E+00
 5  2 1.22853862E+00 0.00000000E+00 0.00000000E+00-5.81702092E-01 0.00000000E+00
 5  3 0.00000000E+00-2.96895053E-01-2.81315654E-04-2.30628849E-02 2.33442005E-02
 5  4 0.00000000E+00 0.00000000E+00 0.00000000E+00-2.13467344E-02 7.18621164E-03
 5  5 1.41605227E-02 0.00000000E+00 0.00000000E+00 0.00000000E+00 0.00000000E+00
 5  6 0.00000000E+00 2.05017505E-03 0.00000000E+00-1.38720882E-02 0.00000000E+00
 5  7 1.11214898E-02 0.00000000E+00 0.00000000E+00 0.00000000E+00-4.31413378E-01
 5  8-7.11386830E-02-2.00964707E-03 0.00000000E+00-2.20902397E-02-2.80581099E-02
 5  9 0.00000000E+00 1.66509331E-02-4.62696459E-02-6.24185285E-03-1.80511310E-03
 5 10 8.04696595E-03 0.00000000E+00 0.00000000E+00-2.47836765E-02-4.31413378E-01
 5 11-7.11386830E-02-2.00964707E-03 0.00000000E+00 2.20902397E-02-2.80581099E-02
 5 12 0.00000000E+00-1.66509331E-02-4.62696459E-02-6.24185285E-03-1.80511310E-03
 5 13 8.04696595E-03 0.00000000E+00 0.00000000E+00 2.47836765E-02
 6  1 0.00000000E+00 0.00000000E+00 0.00000000E+00 0.00000000E+00 1.42063139E+00
 6  2 0.00000000E+00 0.00000000E+00-5.82887211E-01 0.00000000E+00 0.00000000E+00
 6  3-3.50622291E-01 0.00000000E+00 0.00000000E+00 0.00000000E+00 0.00000000E+00
 6  4 0.00000000E+00 0.00000000E+00-1.01587359E-01 0.00000000E+00 0.00000000E+00
 6  5 0.00000000E+00 0.00000000E+00 0.00000000E+00-3.72778900E-02 0.00000000E+00
 6  6-8.88504367E-05 0.00000000E+00-1.27188077E-02 0.00000000E+00 0.00000000E+00
 6  7 0.00000000E+00 0.00000000E+00 1.28380131E-02 0.00000000E+00 4.23987566E-01
 6  8 1.62321462E-01 3.97087718E-02 0.00000000E+00-1.79324638E-02 9.88742826E-03
 6  9 0.00000000E+00 2.28063156E-03 2.08901229E-02 1.20075942E-02-1.22153705E-02
 6 10 2.07776349E-04 0.00000000E+00 0.00000000E+00 2.17767777E-02-4.23987566E-01
 6 11-1.62321462E-01-3.97087718E-02 0.00000000E+00-1.79324638E-02-9.88742826E-03
 6 12 0.00000000E+00 2.28063156E-03-2.08901229E-02-1.20075942E-02 1.22153705E-02
 6 13-2.07776349E-04 0.00000000E+00 0.00000000E+00 2.17767777E-02
 7  1-1.15204257E+00-3.97664847E-01 1.35359124E+00 0.00000000E+00 0.00000000E+00
 7  2 9.89500485E-01 0.00000000E+00 0.00000000E+00-7.13597441E-01 0.00000000E+00
 7  3 0.00000000E+00-5.12392681E-01 4.73582560E-02-2.91835436E-03-4.44399016E-02
 7  4 0.00000000E+00 0.00000000E+00 0.00000000E+00 4.77959658E-02 4.96238043E-03
 7  5-5.27583462E-02 0.00000000E+00 0.00000000E+00 0.00000000E+00 0.00000000E+00
 7  6 0.00000000E+00 1.66364965E-02 0.00000000E+00-8.68853765E-03 0.00000000E+00
 7  7-1.36316646E-02 0.00000000E+00 0.00000000E+00 0.00000000E+00 1.31302935E-01
 7  8-6.70517695E-02 1.71035242E-02 0.00000000E+00 3.32710267E-02-1.00772813E-01
 7  9 0.00000000E+00-4.13585869E-03-8.00168717E-02-1.27596470E-02-2.91427628E-03
 7 10 1.56739233E-02 0.00000000E+00 0.00000000E+00-3.41811054E-02 1.31302935E-01
 7 11-6.70517695E-02 1.71035242E-02 0.00000000E+00-3.32710267E-02-1.00772813E-01
 7 12 0.00000000E+00 4.13585869E-03-8.00168717E-02-1.27596470E-02-2.91427628E-03
 7 13 1.56739233E-02 0.00000000E+00 0.00000000E+00 3.41811054E-02
 8  1 0.00000000E+00 0.00000000E+00 0.00000000E+00 0.00000000E+00 6.32292131E-01
 8  2 0.00000000E+00 0.00000000E+00-4.76759075E-01 0.00000000E+00 0.00000000E+00
 8  3-5.72938605E-01 0.00000000E+00 0.00000000E+00 0.00000000E+00 0.00000000E+00
 8  4 0.00000000E+00 0.00000000E+00 5.17964806E-01 0.00000000E+00 0.00000000E+00
 8  5 0.00000000E+00 0.00000000E+00 0.00000000E+00 3.80156475E-01 0.00000000E+00
 8  6 9.69120677E-03 0.00000000E+00-4.37275848E-03 0.00000000E+00 0.00000000E+00
 8  7 0.00000000E+00 0.00000000E+00-8.62935979E-03 0.00000000E+00-7.77386284E-02
 8  8-8.99542734E-02 2.05421527E-02 0.00000000E+00-1.60629050E-01 5.18107877E-02
 8  9 0.00000000E+00-7.12039069E-02 1.28723184E-02 4.37996191E-02-5.51406851E-02
 8 10 1.13410660E-02 0.00000000E+00 0.00000000E+00 6.06020948E-02 7.77386284E-02
 8 11 8.99542734E-02-2.05421527E-02 0.00000000E+00-1.60629050E-01-5.18107877E-02
 8 12 0.00000000E+00-7.12039069E-02-1.28723184E-02-4.37996191E-02 5.51406851E-02
 8 13-1.13410660E-02 0.00000000E+00 0.00000000E+00 6.06020948E-02
 9  1-2.06223980E-02-6.36203033E-03-6.91083244E-01 0.00000000E+00 0.00000000E+00
 9  2-3.16221309E-02 0.00000000E+00 0.00000000E+00-3.44605861E-01 0.00000000E+00
 9  3 0.00000000E+00-1.18017001E-02 1.76826821E-02-8.32738140E-03-9.35530073E-03
 9  4 0.00000000E+00 0.00000000E+00 0.00000000E+00-2.65814835E-03 2.67520777E-03
 9  5-1.70594160E-05 0.00000000E+00 0.00000000E+00 0.00000000E+00 0.00000000E+00
 9  6 0.00000000E+00 1.39424698E-03 0.00000000E+00 2.09541275E-03 0.00000000E+00
 9  7-3.96599137E-03 0.00000000E+00 0.00000000E+00 0.00000000E+00 6.73484002E-02
 9  8 7.70690853E-01-7.31705730E-01 0.00000000E+00 2.54216548E-02-1.61213073E-02
 9  9 0.00000000E+00 1.27921605E-01-1.10755298E-01-2.23249188E-03 2.02086519E-03
 9 10 2.11626691E-04 0.00000000E+00 0.00000000E+00-3.92332319E-03 6.73484002E-02
 9 11 7.70690853E-01-7.31705730E-01 0.00000000E+00-2.54216548E-02-1.61213073E-02
 9 12 0.00000000E+00-1.27921605E-01-1.10755298E-01-2.23249188E-03 2.02086519E-03
 9 13 2.11626691E-04 0.00000000E+00 0.00000000E+00 3.92332319E-03
10  1 0.00000000E+00 0.00000000E+00 0.00000000E+00 0.00000000E+00-5.19697779E-02
10  2 0.00000000E+00 0.00000000E+00 4.06737163E-01 0.00000000E+00 0.00000000E+00
10  3-4.76143357E-02 0.00000000E+00 0.00000000E+00 0.00000000E+00 0.00000000E+00
10  4 0.00000000E+00 0.00000000E+00-2.94989399E-02 0.00000000E+00 0.00000000E+00
10  5 0.00000000E+00 0.00000000E+00 0.00000000E+00-7.89246174E-03 0.00000000E+00
10  6-3.41440315E-04 0.00000000E+00 1.01047406E-03 0.00000000E+00 0.00000000E+00
10  7 0.00000000E+00 0.00000000E+00-5.52383806E-04 0.00000000E+00-2.53887439E-02
10  8 3.00082074E-01 2.48027605E+00 0.00000000E+00-8.83359048E-03 9.11908965E-04
10  9 0.00000000E+00 3.84933352E-01-8.43911523E-02-2.62349206E-05 3.58909763E-03
10 10-3.56286271E-03 0.00000000E+00 0.00000000E+00 3.58309772E-03 2.53887439E-02
10 11-3.00082074E-01-2.48027605E+00 0.00000000E+00-8.83359048E-03-9.11908965E-04
10 12 0.00000000E+00 3.84933352E-01 8.43911523E-02 2.62349206E-05-3.58909763E-03
10 13 3.56286271E-03 0.00000000E+00 0.00000000E+00 3.58309772E-03
11  1 0.00000000E+00 0.00000000E+00 0.00000000E+00-3.48322308E-01 0.00000000E+00
11  2 0.00000000E+00-8.58149667E-01 0.00000000E+00 0.00000000E+00 2.67247729E-03
11  3 0.00000000E+00 0.00000000E+00 0.00000000E+00 0.00000000E+00 0.00000000E+00
11  4 0.00000000E+00-2.78916622E-02 0.00000000E+00 0.00000000E+00 0.00000000E+00
11  5 0.00000000E+00 0.00000000E+00 8.86923896E-03 0.00000000E+00 3.52217618E-03
11  6 0.00000000E+00 0.00000000E+00 0.00000000E+00 0.00000000E+00-4.06471084E-03
11  7 0.00000000E+00-6.60784380E-04 0.00000000E+00 0.00000000E+00 0.00000000E+00
11  8 0.00000000E+00 0.00000000E+00-1.79451113E-02 0.00000000E+00 0.00000000E+00
11  9 9.68093125E-01 0.00000000E+00 0.00000000E+00 0.00000000E+00 0.00000000E+00
11 10 0.00000000E+00 1.41905097E-02-8.09902323E-03 0.00000000E+00 0.00000000E+00
11 11 0.00000000E+00 0.00000000E+00-1.79451113E-02 0.00000000E+00 0.00000000E+00
11 12 9.68093125E-01 0.00000000E+00 0.00000000E+00 0.00000000E+00 0.00000000E+00
11 13 0.00000000E+00-1.41905097E-02-8.09902323E-03 0.00000000E+00
12  1-6.39180869E-03 5.27765896E-03 1.38632226E+00 0.00000000E+00 0.00000000E+00
12  2 2.66730689E-03 0.00000000E+00 0.00000000E+00 8.37668084E-01 0.00000000E+00
12  3 0.00000000E+00-1.49292843E-02-2.20136074E-02-1.00543527E-03 2.30190427E-02
12  4 0.00000000E+00 0.00000000E+00 0.00000000E+00-1.81710505E-03 1.14444162E-02
12  5-9.62731115E-03 0.00000000E+00 0.00000000E+00 0.00000000E+00 0.00000000E+00
12  6 0.00000000E+00-1.67642168E-03 0.00000000E+00-2.47269803E-03 0.00000000E+00
12  7 4.72185374E-03 0.00000000E+00 0.00000000E+00 0.00000000E+00 1.21137008E-02
12  8-4.36681990E-01-1.92046747E-02 0.00000000E+00-9.35421113E-03 5.66049869E-03
12  9 0.00000000E+00-9.79294443E-01-1.53274541E-01-9.04991361E-04-1.27536775E-02
12 10 1.36586689E-02 0.00000000E+00 0.00000000E+00 2.20783344E-04 1.21137008E-02
12 11-4.36681990E-01-1.92046747E-02 0.00000000E+00 9.35421113E-03 5.66049869E-03
12 12 0.00000000E+00 9.79294443E-01-1.53274541E-01-9.04991361E-04-1.27536775E-02
12 13 1.36586689E-02 0.00000000E+00 0.00000000E+00-2.20783344E-04
13  1 0.00000000E+00 0.00000000E+00 0.00000000E+00 0.00000000E+00 0.00000000E+00
13  2 0.00000000E+00 0.00000000E+00 0.00000000E+00 0.00000000E+00 0.00000000E+00
13  3 0.00000000E+00 0.00000000E+00 0.00000000E+00 0.00000000E+00 0.00000000E+00
13  4 1.26776704E-02 0.00000000E+00 0.00000000E+00 0.00000000E+00 0.00000000E+00
13  5 0.00000000E+00-1.35238179E-02 0.00000000E+00 0.00000000E+00 0.00000000E+00
13  6 0.00000000E+00 0.00000000E+00 0.00000000E+00 0.00000000E+00 0.00000000E+00
13  7 0.00000000E+00 0.00000000E+00 0.00000000E+00 1.11326901E-03 0.00000000E+00
13  8 0.00000000E+00 0.00000000E+00-1.05873907E-02 0.00000000E+00 0.00000000E+00
13  9 1.05118844E+00 0.00000000E+00 0.00000000E+00 0.00000000E+00 0.00000000E+00
13 10 0.00000000E+00 1.32196518E-02-1.13410254E-02 0.00000000E+00 0.00000000E+00
13 11 0.00000000E+00 0.00000000E+00 1.05873907E-02 0.00000000E+00 0.00000000E+00
13 12-1.05118844E+00 0.00000000E+00 0.00000000E+00 0.00000000E+00 0.00000000E+00
13 13 0.00000000E+00 1.32196518E-02 1.13410254E-02 0.00000000E+00
14  1 0.00000000E+00 0.00000000E+00 0.00000000E+00 0.00000000E+00 1.43383312E-01
14  2 0.00000000E+00 0.00000000E+00 2.80547384E+00 0.00000000E+00 0.00000000E+00
14  3 3.93452618E-02 0.00000000E+00 0.00000000E+00 0.00000000E+00 0.00000000E+00
14  4 0.00000000E+00 0.00000000E+00 4.04912179E-02 0.00000000E+00 0.00000000E+00
14  5 0.00000000E+00 0.00000000E+00 0.00000000E+00-9.29301394E-03 0.00000000E+00
14  6 1.25375341E-03 0.00000000E+00-4.16081501E-03 0.00000000E+00 0.00000000E+00
14  7 0.00000000E+00 0.00000000E+00 2.47872830E-03 0.00000000E+00 8.16400331E-02
14  8 4.43651546E+00 7.70183281E-01 0.00000000E+00 3.35301736E-02-1.45835381E-02
14  9 0.00000000E+00 1.88561159E+00-2.06352181E+00-1.59599483E-02 9.44776369E-03
14 10 6.51218461E-03 0.00000000E+00 0.00000000E+00-2.03043773E-02-8.16400331E-02
14 11-4.43651546E+00-7.70183281E-01 0.00000000E+00 3.35301736E-02 1.45835381E-02
14 12 0.00000000E+00 1.88561159E+00 2.06352181E+00 1.59599483E-02-9.44776369E-03
14 13-6.51218461E-03 0.00000000E+00 0.00000000E+00-2.03043773E-02
15  1-1.23696197E-02 8.61550454E-04-1.41625346E+00 0.00000000E+00 0.00000000E+00
15  2-1.94308096E-01 0.00000000E+00 0.00000000E+00 1.51164377E+00 0.00000000E+00
15  3 0.00000000E+00-2.56540688E-01-2.53615411E-02-3.00366724E-02 5.53982134E-02
15  4 0.00000000E+00 0.00000000E+00 0.00000000E+00 1.10587441E-02 1.88941739E-03
15  5-1.29481615E-02 0.00000000E+00 0.00000000E+00 0.00000000E+00 0.00000000E+00
15  6 0.00000000E+00 4.99430420E-03 0.00000000E+00-2.56158183E-03 0.00000000E+00
15  7-4.13898038E-03 0.00000000E+00 0.00000000E+00 0.00000000E+00 9.48400441E-02
15  8-2.22807472E-01 3.08921727E-01 0.00000000E+00-1.98253766E-02-1.05292593E-02
15  9 0.00000000E+00 5.65476123E-01-1.06489913E+00-1.62686310E-02-5.78071755E-04
15 10 1.68467027E-02 0.00000000E+00 0.00000000E+00-3.97230887E-02 9.48400441E-02
15 11-2.22807472E-01 3.08921727E-01 0.00000000E+00 1.98253766E-02-1.05292593E-02
15 12 0.00000000E+00-5.65476123E-01-1.06489913E+00-1.62686310E-02-5.78071755E-04
15 13 1.68467027E-02 0.00000000E+00 0.00000000E+00 3.97230887E-02
16  1 0.00000000E+00 0.00000000E+00 0.00000000E+00 0.00000000E+00 9.01155750E-02
16  2 0.00000000E+00 0.00000000E+00-1.00278895E+00 0.00000000E+00 0.00000000E+00
16  3 3.18099644E-01 0.00000000E+00 0.00000000E+00 0.00000000E+00 0.00000000E+00
16  4 0.00000000E+00 0.00000000E+00 1.75404285E-01 0.00000000E+00 0.00000000E+00
16  5 0.00000000E+00 0.00000000E+00 0.00000000E+00 2.12779252E-02 0.00000000E+00
16  6-1.36283131E-03 0.00000000E+00-9.73969414E-03 0.00000000E+00 0.00000000E+00
16  7 0.00000000E+00 0.00000000E+00 1.15681242E-02 0.00000000E+00 3.79263142E-02
16  8 1.46024081E+00 9.66498000E-01 0.00000000E+00 3.72734883E-02-7.73079499E-02
16  9 0.00000000E+00 2.07179765E+00 7.00804161E-01-3.84514150E-02 4.50468313E-02
16 10-6.59541621E-03 0.00000000E+00 0.00000000E+00-3.77638678E-02-3.79263142E-02
16 11-1.46024081E+00-9.66498000E-01 0.00000000E+00 3.72734883E-02 7.73079499E-02
16 12 0.00000000E+00 2.07179765E+00-7.00804161E-01 3.84514150E-02-4.50468313E-02
16 13 6.59541621E-03 0.00000000E+00 0.00000000E+00-3.77638678E-02
17  1 0.00000000E+00 0.00000000E+00 0.00000000E+00-5.08347260E-01 0.00000000E+00
17  2 0.00000000E+00 2.28175167E+00 0.00000000E+00 0.00000000E+00-5.20330095E-01
17  3 0.00000000E+00 0.00000000E+00 0.00000000E+00 0.00000000E+00 0.00000000E+00
17  4 0.00000000E+00-2.28870106E-02 0.00000000E+00 0.00000000E+00 0.00000000E+00
17  5 0.00000000E+00 0.00000000E+00-1.17075414E-02 0.00000000E+00-3.52414033E-03
17  6 0.00000000E+00 0.00000000E+00 0.00000000E+00 0.00000000E+00 3.27351354E-03
17  7 0.00000000E+00 1.45461686E-03 0.00000000E+00 0.00000000E+00 0.00000000E+00
17  8 0.00000000E+00 0.00000000E+00-5.90219790E-02 0.00000000E+00 0.00000000E+00
17  9-6.46860615E-01 0.00000000E+00 0.00000000E+00 0.00000000E+00 0.00000000E+00
17 10 0.00000000E+00-1.33692589E-02-3.39920263E-03 0.00000000E+00 0.00000000E+00
17 11 0.00000000E+00 0.00000000E+00-5.90219790E-02 0.00000000E+00 0.00000000E+00
17 12-6.46860615E-01 0.00000000E+00 0.00000000E+00 0.00000000E+00 0.00000000E+00
17 13 0.00000000E+00 1.33692589E-02-3.39920263E-03 0.00000000E+00
18  1-3.46421866E-01-1.35878051E-01 4.82377153E+00 0.00000000E+00 0.00000000E+00
18  2-1.14979771E-01 0.00000000E+00 0.00000000E+00 3.67640646E-01 0.00000000E+00
18  3 0.00000000E+00 6.07547517E-01-3.02690715E-01 2.76951667E-01 2.57390481E-02
18  4 0.00000000E+00 0.00000000E+00 0.00000000E+00-7.19897291E-03 7.05455546E-03
18  5 1.44417443E-04 0.00000000E+00 0.00000000E+00 0.00000000E+00 0.00000000E+00
18  6 0.00000000E+00-3.24099025E-02 0.00000000E+00-4.05952873E-02 0.00000000E+00
18  7 8.40777344E-02 0.00000000E+00 0.00000000E+00 0.00000000E+00 2.68920091E-01
18  8-2.57857767E+00 2.80297510E-01 0.00000000E+00-3.51633898E-01 2.41672453E-01
18  9 0.00000000E+00-5.59935752E-01 7.56340126E-01 6.89615352E-02-5.64528194E-02
18 10-1.25087158E-02 0.00000000E+00 0.00000000E+00 1.23235842E-01 2.68920091E-01
18 11-2.57857767E+00 2.80297510E-01 0.00000000E+00 3.51633898E-01 2.41672453E-01
18 12 0.00000000E+00 5.59935752E-01 7.56340126E-01 6.89615352E-02-5.64528194E-02
18 13-1.25087158E-02 0.00000000E+00 0.00000000E+00-1.23235842E-01
19  1 0.00000000E+00 0.00000000E+00 0.00000000E+00 0.00000000E+00-2.63086481E-01
19  2 0.00000000E+00 0.00000000E+00 6.76809824E+00 0.00000000E+00 0.00000000E+00
19  3 3.47363645E-01 0.00000000E+00 0.00000000E+00 0.00000000E+00 0.00000000E+00
19  4 0.00000000E+00 0.00000000E+00 6.27730680E-01 0.00000000E+00 0.00000000E+00
19  5 0.00000000E+00 0.00000000E+00 0.00000000E+00-3.15578063E-04 0.00000000E+00
19  6 6.08933293E-03 0.00000000E+00-5.13875939E-02 0.00000000E+00 0.00000000E+00
19  7 0.00000000E+00 0.00000000E+00 4.32178965E-02 0.00000000E+00-1.84827519E-01
19  8 1.03540923E+01 3.46130058E-01 0.00000000E+00 3.01432216E-01-2.80340513E-01
19  9 0.00000000E+00 3.07498584E+00-2.30852649E+00-5.20874416E-02 5.22524094E-02
19 10-1.64967824E-04 0.00000000E+00 0.00000000E+00-1.03136625E-01 1.84827519E-01
19 11-1.03540923E+01-3.46130058E-01 0.00000000E+00 3.01432216E-01 2.80340513E-01
19 12 0.00000000E+00 3.07498584E+00 2.30852649E+00 5.20874416E-02-5.22524094E-02
19 13 1.64967824E-04 0.00000000E+00 0.00000000E+00-1.03136625E-01
20  1-1.47943800E+00-1.86924776E-01 5.07094528E+00 0.00000000E+00 0.00000000E+00
20  2 2.26385321E-01 0.00000000E+00 0.00000000E+00 1.35796827E+00 0.00000000E+00
20  3 0.00000000E+00-3.44307455E-01 3.27118302E-01-2.06602660E-02-3.06458036E-01
20  4 0.00000000E+00 0.00000000E+00 0.00000000E+00 1.36427942E-02-4.84936125E-03
20  5-8.79343299E-03 0.00000000E+00 0.00000000E+00 0.00000000E+00 0.00000000E+00
20  6 0.00000000E+00 2.06586308E-03 0.00000000E+00-4.58248699E-04 0.00000000E+00
20  7-2.31339747E-03 0.00000000E+00 0.00000000E+00 0.00000000E+00-4.62158748E-01
20  8-1.53888902E+00 3.44206650E-02 0.00000000E+00-9.84232843E-02-1.56761542E-01
20  9 0.00000000E+00-5.99517134E-01 5.46135881E-01 4.70897184E-02-8.15523622E-03
20 10-3.89344822E-02 0.00000000E+00 0.00000000E+00-2.53814418E-02-4.62158748E-01
20 11-1.53888902E+00 3.44206650E-02 0.00000000E+00 9.84232843E-02-1.56761542E-01
20 12 0.00000000E+00 5.99517134E-01 5.46135881E-01 4.70897184E-02-8.15523622E-03
20 13-3.89344822E-02 0.00000000E+00 0.00000000E+00 2.53814418E-02
21  1 0.00000000E+00 0.00000000E+00 0.00000000E+00 0.00000000E+00 3.91385511E-01
21  2 0.00000000E+00 0.00000000E+00 2.33153242E+00 0.00000000E+00 0.00000000E+00
21  3-1.70724626E+00 0.00000000E+00 0.00000000E+00 0.00000000E+00 0.00000000E+00
21  4 0.00000000E+00 0.00000000E+00 3.39724382E-02 0.00000000E+00 0.00000000E+00
21  5 0.00000000E+00 0.00000000E+00 0.00000000E+00 2.72411900E-02 0.00000000E+00
21  6-1.22697218E-02 0.00000000E+00 6.76769412E-02 0.00000000E+00 0.00000000E+00
21  7 0.00000000E+00 0.00000000E+00-5.12153819E-02 0.00000000E+00 3.36365040E-01
21  8 2.34500400E-01 3.41758758E-01 0.00000000E+00-6.46381666E-01 2.63909637E-01
21  9 0.00000000E+00-2.51646870E-01-4.71275541E-01 7.66011110E-02-6.09288108E-02
21 10-1.56723001E-02 0.00000000E+00 0.00000000E+00 2.22960525E-01-3.36365040E-01
21 11-2.34500400E-01-3.41758758E-01 0.00000000E+00-6.46381666E-01-2.63909637E-01
21 12 0.00000000E+00-2.51646870E-01 4.71275541E-01-7.66011110E-02 6.09288108E-02
21 13 1.56723001E-02 0.00000000E+00 0.00000000E+00 2.22960525E-01
22  1-7.82215795E-01-1.04546752E-01 3.09375973E+00 0.00000000E+00 0.00000000E+00
22  2-1.55956404E-01 0.00000000E+00 0.00000000E+00 7.40707157E-01 0.00000000E+00
22  3 0.00000000E+00 2.42045039E-01 3.43277096E-02-4.72228721E-01 4.37901011E-01
22  4 0.00000000E+00 0.00000000E+00 0.00000000E+00 3.55272840E-03-8.15781352E-03
22  5 4.60508513E-03 0.00000000E+00 0.00000000E+00 0.00000000E+00 0.00000000E+00
22  6 0.00000000E+00-1.46615561E-04 0.00000000E+00-9.01611827E-03 0.00000000E+00
22  7 9.21282369E-03 0.00000000E+00 0.00000000E+00 0.00000000E+00-2.28188136E-01
22  8-9.31957879E-01 2.29430502E-02 0.00000000E+00 1.76583567E-01 3.77625164E-01
22  9 0.00000000E+00-6.62854238E-01 3.42091467E-02 1.24713902E-02-6.94477055E-02
22 10 5.69763153E-02 0.00000000E+00 0.00000000E+00 4.34747414E-02-2.28188136E-01
22 11-9.31957879E-01 2.29430502E-02 0.00000000E+00-1.76583567E-01 3.77625164E-01
22 12 0.00000000E+00 6.62854238E-01 3.42091467E-02 1.24713902E-02-6.94477055E-02
22 13 5.69763153E-02 0.00000000E+00 0.00000000E+00-4.34747414E-02
23  1 0.00000000E+00 0.00000000E+00 0.00000000E+00 0.00000000E+00 0.00000000E+00
23  2 0.00000000E+00 0.00000000E+00 0.00000000E+00 0.00000000E+00 0.00000000E+00
23  3 0.00000000E+00 0.00000000E+00 0.00000000E+00 0.00000000E+00 0.00000000E+00
23  4 6.90467186E-01 0.00000000E+00 0.00000000E+00 0.00000000E+00 0.00000000E+00
23  5 0.00000000E+00 3.18297153E-03 0.00000000E+00 0.00000000E+00 0.00000000E+00
23  6 0.00000000E+00 0.00000000E+00 0.00000000E+00 0.00000000E+00 0.00000000E+00
23  7 0.00000000E+00 0.00000000E+00 0.00000000E+00 1.81981744E-02 0.00000000E+00
23  8 0.00000000E+00 0.00000000E+00-4.30144309E-01 0.00000000E+00 0.00000000E+00
23  9 5.20776906E-01 0.00000000E+00 0.00000000E+00 0.00000000E+00 0.00000000E+00
23 10 0.00000000E+00 8.70519549E-02-2.47178914E-02 0.00000000E+00 0.00000000E+00
23 11 0.00000000E+00 0.00000000E+00 4.30144309E-01 0.00000000E+00 0.00000000E+00
23 12-5.20776906E-01 0.00000000E+00 0.00000000E+00 0.00000000E+00 0.00000000E+00
23 13 0.00000000E+00 8.70519549E-02 2.47178914E-02 0.00000000E+00
24  1 0.00000000E+00 0.00000000E+00 0.00000000E+00-3.88561844E-01 0.00000000E+00
24  2 0.00000000E+00 7.15172258E-01 0.00000000E+00 0.00000000E+00 7.83295551E-02
24  3 0.00000000E+00 0.00000000E+00 0.00000000E+00 0.00000000E+00 0.00000000E+00
24  4 0.00000000E+00 7.06650271E-01 0.00000000E+00 0.00000000E+00 0.00000000E+00
24  5 0.00000000E+00 0.00000000E+00-3.22197221E-03 0.00000000E+00-1.49401397E-02
24  6 0.00000000E+00 0.00000000E+00 0.00000000E+00 0.00000000E+00 9.72879336E-03
24  7 0.00000000E+00 1.03155074E-02 0.00000000E+00 0.00000000E+00 0.00000000E+00
24  8 0.00000000E+00 0.00000000E+00 3.92810976E-01 0.00000000E+00 0.00000000E+00
24  9-4.46994172E-01 0.00000000E+00 0.00000000E+00 0.00000000E+00 0.00000000E+00
24 10 0.00000000E+00-2.64241378E-02 1.10385921E-01 0.00000000E+00 0.00000000E+00
24 11 0.00000000E+00 0.00000000E+00 3.92810976E-01 0.00000000E+00 0.00000000E+00
24 12-4.46994172E-01 0.00000000E+00 0.00000000E+00 0.00000000E+00 0.00000000E+00
24 13 0.00000000E+00 2.64241378E-02 1.10385921E-01 0.00000000E+00
25  1-5.46743335E-01-8.08199846E-02 1.29892821E+00 0.00000000E+00 0.00000000E+00
25  2 1.59075359E-01 0.00000000E+00 0.00000000E+00 5.94716775E-01 0.00000000E+00
25  3 0.00000000E+00-4.38602823E-01-6.25289520E-01 4.61309928E-01 1.63979592E-01
25  4 0.00000000E+00 0.00000000E+00 0.00000000E+00-5.87631924E-03 5.07738228E-04
25  5 5.36858101E-03 0.00000000E+00 0.00000000E+00 0.00000000E+00 0.00000000E+00
25  6 0.00000000E+00 7.01363295E-03 0.00000000E+00 2.28103601E-02 0.00000000E+00
25  7-3.22201361E-02 0.00000000E+00 0.00000000E+00 0.00000000E+00-4.14356276E-01
25  8-2.00665609E-01-8.73065025E-03 0.00000000E+00 3.34328838E-01-2.13200037E-01
25  9 0.00000000E+00-2.25935492E-01 7.79623540E-02-5.92549434E-02 3.20345638E-02
25 10 2.72203796E-02 0.00000000E+00 0.00000000E+00 2.44451647E-01-4.14356276E-01
25 11-2.00665609E-01-8.73065025E-03 0.00000000E+00-3.34328838E-01-2.13200037E-01
25 12 0.00000000E+00 2.25935492E-01 7.79623540E-02-5.92549434E-02 3.20345638E-02
25 13 2.72203796E-02 0.00000000E+00 0.00000000E+00-2.44451647E-01
26  1 0.00000000E+00 0.00000000E+00 0.00000000E+00 0.00000000E+00-1.49164673E-01
26  2 0.00000000E+00 0.00000000E+00 3.53999896E-01 0.00000000E+00 0.00000000E+00
26  3-2.46795885E-01 0.00000000E+00 0.00000000E+00 0.00000000E+00 0.00000000E+00
26  4 0.00000000E+00 0.00000000E+00 1.42603081E-01 0.00000000E+00 0.00000000E+00
26  5 0.00000000E+00 0.00000000E+00 0.00000000E+00 2.10266198E-02 0.00000000E+00
26  6 2.71296836E-02 0.00000000E+00 1.98075875E-02 0.00000000E+00 0.00000000E+00
26  7 0.00000000E+00 0.00000000E+00-5.62058775E-02 0.00000000E+00 1.75354977E-01
26  8-6.01202866E-01-1.49273832E-01 0.00000000E+00 2.14353871E-01 7.63482337E-01
26  9 0.00000000E+00-5.30825967E-01-4.18342687E-01-1.93004137E-02-1.13241127E-01
26 10 1.32541540E-01 0.00000000E+00 0.00000000E+00-6.23008782E-02-1.75354977E-01
26 11 6.01202866E-01 1.49273832E-01 0.00000000E+00 2.14353871E-01-7.63482337E-01
26 12 0.00000000E+00-5.30825967E-01 4.18342687E-01 1.93004137E-02 1.13241127E-01
26 13-1.32541540E-01 0.00000000E+00 0.00000000E+00-6.23008782E-02
27  1 0.00000000E+00 0.00000000E+00 0.00000000E+00-3.48030454E-01 0.00000000E+00
27  2 0.00000000E+00-2.15730815E-01 0.00000000E+00 0.00000000E+00 2.85003137E-01
27  3 0.00000000E+00 0.00000000E+00 0.00000000E+00 0.00000000E+00 0.00000000E+00
27  4 0.00000000E+00-6.23100034E-01 0.00000000E+00 0.00000000E+00 0.00000000E+00