&CONTROL
   calculation     = 'scf'
   disk_io         = 'low'
   outdir          = 'pwscf_output'
   prefix          = 'pwscf'
   pseudo_dir      = './'
   restart_mode    = 'from_scratch'
   tprnfor         = .false.
   tstress         = .false.
   verbosity       = 'high'
   wf_collect      = .true.
/

&SYSTEM
   celldm(1)       = 1.0
   degauss         = 0.0001
   ecutrho         = 1000
   ecutwfc         = 250
   ibrav           = 0
   input_dft       = 'lda'
   nat             = 1
   nosym           = .true.
   ntyp            = 1
   occupations     = 'smearing'
   smearing        = 'fermi-dirac'
   tot_charge      = 0
/

&ELECTRONS
   conv_thr        = 1e-08
   electron_maxstep = 1000
   mixing_beta     = 0.7
/


ATOMIC_SPECIES 
   Be 9.0122 Be.BFD.upf

ATOMIC_POSITIONS alat
   Be       0.00000000       0.00000000       0.00000000 

K_POINTS automatic
   1 1 1  0 0 0 

CELL_PARAMETERS cubic
         4.32747284       0.00000000       0.00000000 
        -2.16373642       3.74770142       0.00000000 
         0.00000000      -0.00000000       6.78114995 


