&CONTROL
   calculation     = 'scf'
   disk_io         = 'low'
   outdir          = 'pwscf_output'
   prefix          = 'pwscf'
   pseudo_dir      = './'
   restart_mode    = 'from_scratch'
   tprnfor         = .true.
   tstress         = .true.
   verbosity       = 'high'
   wf_collect      = .true.
/

&SYSTEM
   !celldm(1)       = 1.0
   degauss         = 0.0001
   ecutrho         = 1800
   ecutwfc         = 450
   ibrav           = 0
   nat             = 2
   nosym           = .false.
   ntyp            = 2
   occupations     = 'smearing'
   smearing        = 'fermi-dirac'
   tot_charge      = 0
/

&ELECTRONS
   conv_thr        = 1e-10
   diagonalization = 'david'
   electron_maxstep = 1000
   mixing_beta     = 0.7
   mixing_mode     = 'plain'
/


ATOMIC_SPECIES 
   H  1.00794 H.TN-DF.upf
   Li 6.941 Li.TN-DF.upf

ATOMIC_POSITIONS bohr
   Li       0.00000000       0.00000000       0.00000000 
   H        3.55000000       3.55000000       3.55000000 

K_POINTS automatic
   7 7 7  1 1 1 

CELL_PARAMETERS bohr
         3.55000000       3.55000000       0.00000000 
        -0.00000000       3.55000000       3.55000000 
         3.55000000       0.00000000       3.55000000 


