&CONTROL
   calculation     = 'scf'
   disk_io         = 'low'
   outdir          = 'pwscf_output'
   prefix          = 'pwscf'
   pseudo_dir      = './'
   restart_mode    = 'from_scratch'
   tprnfor         = .true.
   tstress         = .true.
   verbosity       = 'high'
   wf_collect      = .true.
/

&SYSTEM
   celldm(1)       = 1.0
   degauss         = 0.0001
   ecutrho         = 800
   ecutwfc         = 200
   ibrav           = 0
   input_dft       = 'lda'
   nat             = 8
   nosym           = .true.
   ntyp            = 1
   occupations     = 'smearing'
   smearing        = 'fermi-dirac'
   tot_charge      = 0
/

&ELECTRONS
   conv_thr        = 1e-08
   electron_maxstep = 1000
   mixing_beta     = 0.7
/


ATOMIC_SPECIES 
   C  12.011 C.BFD.upf

ATOMIC_POSITIONS alat
   C        0.00000000       0.00000000       0.00000000 
   C        1.68658057       1.68658057       1.68658057 
   C        0.00000000       3.37316115       3.37316115 
   C        1.68658057       5.05974172       5.05974172 
   C        3.37316115       0.00000000       3.37316115 
   C        5.05974172       1.68658057       5.05974172 
   C        3.37316115       3.37316115       0.00000000 
   C        5.05974172       5.05974172       1.68658057 

K_POINTS automatic
   1 1 1  0 0 0 

CELL_PARAMETERS cubic
         6.74632229       0.00000000       0.00000000 
         0.00000000       6.74632229       0.00000000 
         0.00000000       0.00000000       6.74632229 


