&inputpp
  prefix = 'pwscf'
  outdir = 'pwscf_output'
/
