&inputpp
   outdir='.'
   prefix='LiH-arb'
   write_psir=.false.
/
