&inputpp
   outdir='.'
   prefix='LiH-gamma'
   write_psir=.false.
/
