 $CONTRL SCFTYP=NONE CITYP=GUGA RUNTYP=ENERGY  
   ISPHER=1 EXETYP=RUN COORD=UNIQUE MULT=1 $END
 $SYSTEM  MEMORY=4000000000 MEMDDI=250 TIMLIM=1000 $END
 $BASIS  GBASIS=STO NGAUSS=3 $END
 $DATA

C1    
HYDROGEN       1.0     0.0000000000   0.00000    0.00000000000
HYDROGEN       1.0     1.0000000000   0.00000    0.00000000000
HYDROGEN       1.0    -0.0000000000  -0.00000    1.50000000000
HYDROGEN       1.0     0.0000000000  -0.00000    3.00000000000
 $END
 $GUESS GUESS=MOREAD NORB=4 PUNMO=.T. PRTMO=.T. $END
 $CIDRT GROUP=C1 NFZC=0 NDOC=2 NALP=0 NVAL=2 NPRT=2
   ISTSYM=1 IEXCIT=4 MXNINT= 500000 $END
 $GUGDIA NSTATE=10 PRTTOL=0.00 CVGTOL=1.0E-6 ITERMX=100 $END
 $VEC   
 1  1 5.04668271E-01 4.50113810E-01 3.58423258E-01 1.26449064E-01
 2  1-2.40451607E-01-3.20413056E-01 4.66776849E-01 7.03549089E-01
 3  1 8.80080186E-02-5.04841522E-01 8.07521831E-01-7.19300867E-01
 4  1 1.03323490E+00-8.77212743E-01-3.90492308E-01 2.12318191E-01
 $END 
