&inputpp
  write_psir = .false.
  prefix = 'pwscf'
  cusp_corr = .true.
  outdir = 'pwscf_output'
/
