 $contrl coord=unique ecp=read exetyp=run icharg=0 ispher=1 
         maxit=200 mult=1 runtyp=energy scftyp=rohf  $end
 $system memory=150000000  $end
 $scf    dirscf=.true.  $end
 $guess  guess=hcore  $end
 $ECP
Li-QMC GEN 2 1
3
1.00000000 1 5.41040609
5.41040609 3 2.70520138
-4.60151975 2 2.07005488
1
7.09172172 2 1.34319829
H-QMC GEN 0 0
3
1.00000000 1 4.47692410
4.47692410 3 2.97636451
-4.32112340 2 3.01841596
 $END
 $DATA
A molecule.
Cnv  2

Li 3       0.00000000       0.00000000       0.00000000
s 6 1.00
1 1.865990     0.005887
2 0.725995     -0.057751
3 0.309251     -0.111789
4 0.110313     0.361605
5 0.048874     -0.241554
6 0.021768     1.027902
s 6 1.00
1 1.865990     0.021568
2 0.725995     -0.162539
3 0.309251     0.000231
4 0.110313     0.104303
5 0.048874     2.112288
6 0.021768     -1.974803
s 6 1.00
1 1.865990     -0.030846
2 0.725995     0.243037
3 0.309251     0.304338
4 0.110313     -3.800734
5 0.048874     5.123011
6 0.021768     -2.224756
s 6 1.00
1 1.865990     0.300202
2 0.725995     -2.168856
3 0.309251     5.224024
4 0.110313     -6.124130
5 0.048874     4.531279
6 0.021768     -1.488295
s 1 1.00
1 0.028050     1.000000
p 3 1.00
1 1.534000     0.022786
2 0.274900     0.139102
3 0.073620     0.500375
p 1 1.00
1 0.055780     1.000000
p 1 1.00
1 0.020500     1.000000
d 1 1.00
1 0.187400     1.000000
d 1 1.00
1 0.080100     1.000000
f 1 1.00
1 0.182900     1.000000

H 1       0.00000000       0.00000000       1.59490000
s 6 1.00
1 6.359201     -0.004943
2 3.546637     0.049579
3 1.493442     0.037176
4 0.551948     0.287908
5 0.207203     0.009543
6 0.079234     0.770084
s 6 1.00
1 6.359201     -0.016672
2 3.546637     -0.005774
3 1.493442     -0.227982
4 0.551948     -0.285652
5 0.207203     -1.071579
6 0.079234     1.423767
s 6 1.00
1 6.359201     -0.018886
2 3.546637     -0.058854
3 1.493442     -0.556988
4 0.551948     -1.084022
5 0.207203     2.721525
6 0.079234     -1.458091
s 6 1.00
1 6.359201     -0.081999
2 3.546637     -0.069460
3 1.493442     -2.075555
4 0.551948     4.125180
5 0.207203     -3.407591
6 0.079234     1.264873
s 1 1.00
1 0.102700     1.000000
p 1 1.00
1 2.292000     1.000000
p 1 1.00
1 0.838000     1.000000
p 1 1.00
1 0.292000     1.000000
d 1 1.00
1 2.062000     1.000000
d 1 1.00
1 0.662000     1.000000
f 1 1.00
1 1.397000     1.000000

 $END
