&projwfc
  prefix = 'pwscf'
  outdir = 'pwscf_output'
  lwrite_overlaps = .true.
/

