&inputpp
   outdir='out'
   prefix='LiH'
   write_psir=.false.
/
