 $contrl exetyp=run ispher=1 maxit=200 runtyp=energy scftyp=rohf  $end
 $system memory=150000000  $end
 $scf    dirscf=.true.  $end
 $guess  guess=hcore  $end
 $DATA
Li..cc-pV5Z..MCSCF
C1
Li 3.0 0.0000 0.0000 0.0000
S   10
  1  29493.0000000              0.0000180        
  2   4417.1010000              0.0001410        
  3   1005.2230000              0.0007390        
  4    284.7009000              0.0031070        
  5     92.8654300              0.0111350        
  6     33.5117900              0.0346700        
  7     13.0418000              0.0921710        
  8      5.3575360              0.1995760        
  9      2.2793380              0.3288360        
 10      0.9939900              0.3459750        
S   10
  1  29493.0000000             -0.0000030        
  2   4417.1010000             -0.0000220        
  3   1005.2230000             -0.0001150        
  4    284.7009000             -0.0004870        
  5     92.8654300             -0.0017460        
  6     33.5117900             -0.0055200        
  7     13.0418000             -0.0149280        
  8      5.3575360             -0.0342060        
  9      2.2793380             -0.0621550        
 10      0.9939900             -0.0959020        
S   1
  1      0.4334710              1.0000000        
S   1
  1      0.0955660              1.0000000        
S   1
  1      0.0446570              1.0000000        
S   1
  1      0.0206330              1.0000000        
P   3
  1     11.2500000              0.0013120        
  2      2.5000000              0.0099180        
  3      0.6500000              0.0375420        
P   1
  1      0.2500000              1.0000000        
P   1
  1      0.1000000              1.0000000        
P   1
  1      0.0390000              1.0000000        
P   1
  1      0.0170000              1.0000000        
D   1
  1      0.5500000              1.0000000        
D   1
  1      0.2900000              1.0000000        
D   1
  1      0.1400000              1.0000000        
D   1
  1      0.0610000              1.0000000        
F   1
  1      0.3500000              1.0000000        
F   1
  1      0.2200000              1.0000000        
F   1
  1      0.1100000              1.0000000        
G   1
  1      0.3200000              1.0000000        
G   1
  1      0.1600000              1.0000000        

H 1.0  0.0000 0.0000 1.5949
S   4
  1    402.0000000              0.0002790        
  2     60.2400000              0.0021650        
  3     13.7300000              0.0112010        
  4      3.9050000              0.0448780        
S   1
  1      1.2830000              1.0000000        
S   1
  1      0.4655000              1.0000000        
S   1
  1      0.1811000              1.0000000        
S   1
  1      0.0727900              1.0000000        
P   1
  1      4.5160000              1.0000000        
P   1
  1      1.7120000              1.0000000        
P   1
  1      0.6490000              1.0000000        
P   1
  1      0.2460000              1.0000000        
D   1
  1      2.9500000              1.0000000        
D   1
  1      1.2060000              1.0000000        
D   1
  1      0.4930000              1.0000000        
F   1
  1      2.5060000              1.0000000        
F   1
  1      0.8750000              1.0000000        
G   1
  1      2.3580000              1.0000000        

 $END
